Analysis: Scenario 1,,,,,,,,,,,,,,,,,,,
Length Units,centimeter,,,,,,,,,,,,,,,,,,
0, x, y, z, x-axis value,(1) Velocity Magnitude(cm/s),(2) Vx-Velocity(cm/s),(3) Vy-Velocity(cm/s),(4) Vz-Velocity(cm/s),(5) Static Pressure(dyne/cm2),(6) Temperature(Celsius),(7) Scalar variable(),(8) Density(g/cm3),(9) Viscosity(poise),(10) Shear Stress XY (Tau-XY)(dyne/cm2),(11) Shear Stress YZ (Tau-YZ)(dyne/cm2),(12) Shear Stress ZX (Tau-ZX)(dyne/cm2),(13) Shear Stress (Tau) Magnitude(dyne/cm2),(14) Wall Film Coefficients(W/cm2/K),(15) Wall Heat Flux(W/cm2)
1,-0.182448,-2.50404,-4.01535,0,1488.47,-30.2563,7.50264,1372.82,154.063,0,0,0.00120473,0.0001817,-0.0573322,1.29343,-0.00282636,1.29608,0,0
2,-0.174775,-2.50421,-4.01791,0.00809019,1483.88,-30.0303,6.61881,1371.56,154.196,0,0,0.00120473,0.0001817,-0.0542651,1.28555,-0.00336981,1.28817,0,0
3,-0.167103,-2.50439,-4.02047,0.0161804,1479.29,-29.8045,5.73487,1370.3,154.329,0,0,0.00120473,0.0001817,-0.0511985,1.27768,-0.00391291,1.28027,0,0
4,-0.159431,-2.50457,-4.02303,0.0242706,1474.71,-29.5785,4.85104,1369.04,154.461,0,0,0.00120473,0.0001817,-0.0481315,1.26981,-0.00445636,1.27237,0,0
5,-0.151759,-2.50475,-4.02559,0.0323608,1470.12,-29.3528,3.96688,1367.78,154.594,0,0,0.00120473,0.0001817,-0.0450649,1.26194,-0.00499971,1.26447,0,0
6,-0.144086,-2.50493,-4.02815,0.0404509,1465.53,-29.1269,3.08306,1366.52,154.727,0,0,0.00120473,0.0001817,-0.0419978,1.25406,-0.00554315,1.25656,0,0
7,-0.136414,-2.50511,-4.03071,0.0485411,1460.94,-28.9009,2.19923,1365.26,154.859,0,0,0.00120473,0.0001817,-0.0389308,1.24619,-0.0060866,1.24866,0,0
8,-0.128742,-2.50528,-4.03327,0.0566313,1456.36,-28.675,1.31529,1364,154.992,0,0,0.00120473,0.0001817,-0.0358642,1.23832,-0.0066297,1.24076,0,0
9,-0.12107,-2.50546,-4.03584,0.0647215,1451.77,-28.449,0.431465,1362.74,155.124,0,0,0.00120473,0.0001817,-0.0327972,1.23044,-0.00717315,1.23286,0,0
10,-0.113397,-2.50564,-4.0384,0.0728117,1447.18,-28.2232,-0.452476,1361.48,155.257,0,0,0.00120473,0.0001817,-0.0297306,1.22257,-0.00771626,1.22496,0,0
11,-0.105725,-2.50582,-4.04096,0.0809019,1442.6,-27.9974,-1.33652,1360.23,155.39,0,0,0.00120473,0.0001817,-0.0266635,1.2147,-0.00825995,1.21705,0,0
12,-0.0980527,-2.506,-4.04352,0.0889921,1438.01,-27.7714,-2.22035,1358.97,155.522,0,0,0.00120473,0.0001817,-0.0235965,1.20682,-0.00880339,1.20915,0,0
13,-0.0903805,-2.50618,-4.04608,0.0970823,1432.43,-28.4707,-2.14797,1357.17,154.779,0,0,0.00120473,0.0001817,-0.0183487,1.195,-0.0181985,1.19742,0,0
14,-0.0827082,-2.50635,-4.04864,0.105172,1424.88,-31.0016,-0.181923,1354.29,152.301,0,0,0.00120473,0.0001817,-0.0087817,1.17535,-0.0451215,1.17811,0,0
15,-0.075036,-2.50653,-4.0512,0.113263,1406.23,-34.591,4.02387,1343.32,149.329,0,0,0.00120473,0.0001817,-0.00341296,1.16564,-0.0607411,1.16852,0,0
16,-0.0673637,-2.50671,-4.05376,0.121353,1375.83,-39.3029,10.606,1323.76,145.832,0,0,0.00120473,0.0001817,-0.00249712,1.16645,-0.0643702,1.16924,0,0
17,-0.0596914,-2.50689,-4.05632,0.129443,1345.42,-44.0149,17.1882,1304.21,142.334,0,0,0.00120473,0.0001817,-0.00158129,1.16726,-0.0679993,1.16995,0,0
18,-0.0520192,-2.50707,-4.05888,0.137533,1319.72,-47.9302,23.5236,1284.65,139.067,0,0,0.00120473,0.0001817,-0.000637048,1.1645,-0.0686498,1.16698,0,0
19,-0.0443469,-2.50725,-4.06144,0.145623,1305.82,-49.8428,29.241,1265.04,136.376,0,0,0.00120473,0.0001817,0.000378815,1.15277,-0.0618122,1.15473,0,0
20,-0.0366746,-2.50742,-4.064,0.153714,1293.24,-51.3389,34.4768,1247.14,133.859,0,0,0.00120473,0.0001817,0.00145169,1.14357,-0.0551587,1.14506,0,0
21,-0.0290024,-2.5076,-4.06656,0.161804,1291.27,-49.4435,35.7952,1243.12,132.747,0,0,0.00120473,0.0001817,0.00298887,1.15496,-0.0500004,1.15632,0,0
22,-0.023508,-2.50766,-4.06466,0.167617,1287.95,-48.7799,34.7953,1241.21,134.684,0,0,0.00120473,0.0001817,0.0037811,1.17575,-0.0489143,1.17711,0,0
23,-0.0180136,-2.50773,-4.06277,0.173429,1284.62,-48.1164,33.7954,1239.3,136.62,0,0,0.00120473,0.0001817,0.00457333,1.19654,-0.0478282,1.19789,0,0
24,-0.0125192,-2.50779,-4.06087,0.179242,1281.31,-47.4529,32.7951,1237.39,138.557,0,0,0.00120473,0.0001817,0.00536552,1.21733,-0.046742,1.21867,0,0
25,-0.00702476,-2.50785,-4.05897,0.185055,1277.98,-46.7893,31.7952,1235.48,140.494,0,0,0.00120473,0.0001817,0.00615775,1.23813,-0.0456559,1.23946,0,0
26,-0.00153035,-2.50791,-4.05708,0.190868,1274.66,-46.1258,30.7953,1233.57,142.43,0,0,0.00120473,0.0001817,0.00694998,1.25892,-0.0445699,1.26024,0,0
27,0.00396406,-2.50798,-4.05518,0.196681,1271.33,-45.4622,29.7955,1231.66,144.367,0,0,0.00120473,0.0001817,0.0077422,1.27971,-0.0434838,1.28102,0,0
28,0.00945847,-2.50804,-4.05329,0.202493,1268.01,-44.7987,28.7956,1229.75,146.303,0,0,0.00120473,0.0001817,0.00853443,1.3005,-0.0423977,1.30181,0,0
29,0.0149529,-2.5081,-4.05139,0.208306,1264.69,-44.1351,27.7953,1227.84,148.24,0,0,0.00120473,0.0001817,0.00932662,1.3213,-0.0413115,1.32259,0,0
30,0.0204473,-2.50816,-4.04949,0.214119,1261.37,-43.4716,26.7954,1225.93,150.177,0,0,0.00120473,0.0001817,0.0101189,1.34209,-0.0402254,1.34338,0,0
31,0.0259417,-2.50823,-4.0476,0.219932,1258.04,-42.8081,25.7953,1224.02,152.114,0,0,0.00120473,0.0001817,0.010911,1.36288,-0.0391397,1.36416,0,0
32,0.0314361,-2.50829,-4.0457,0.225745,1254.72,-42.1446,24.7954,1222.11,154.05,0,0,0.00120473,0.0001817,0.0117033,1.38368,-0.0380536,1.38494,0,0
33,0.0369305,-2.50835,-4.0438,0.231558,1251.4,-41.481,23.7955,1220.2,155.987,0,0,0.00120473,0.0001817,0.0124955,1.40447,-0.0369675,1.40573,0,0
34,0.0424249,-2.50841,-4.04191,0.23737,1248.08,-40.8175,22.7952,1218.29,157.924,0,0,0.00120473,0.0001817,0.0132877,1.42526,-0.0358813,1.42651,0,0
35,0.0479193,-2.50848,-4.04001,0.243183,1244.75,-40.1539,21.7953,1216.38,159.86,0,0,0.00120473,0.0001817,0.0140799,1.44605,-0.0347953,1.4473,0,0
36,0.0534137,-2.50854,-4.03811,0.248996,1241.43,-39.4904,20.7954,1214.47,161.797,0,0,0.00120473,0.0001817,0.0148721,1.46685,-0.0337092,1.46808,0,0
37,0.0589081,-2.5086,-4.03622,0.254809,1238.11,-38.8268,19.7955,1212.56,163.734,0,0,0.00120473,0.0001817,0.0156644,1.48764,-0.0326231,1.48886,0,0
38,0.0644025,-2.50866,-4.03432,0.260622,1234.78,-38.1633,18.7956,1210.65,165.67,0,0,0.00120473,0.0001817,0.0164566,1.50843,-0.031537,1.50965,0,0
39,0.0698969,-2.50873,-4.03242,0.266434,1231.46,-37.4997,17.7953,1208.74,167.607,0,0,0.00120473,0.0001817,0.0172488,1.52922,-0.0304508,1.53043,0,0
40,0.0753914,-2.50879,-4.03053,0.272247,1225.13,-39.638,17.8069,1202.16,168.487,0,0,0.00120473,0.0001817,0.0167075,1.53073,-0.0313942,1.53201,0,0
41,0.0808858,-2.50885,-4.02863,0.27806,1223.44,-38.9102,18.8985,1199.52,169.425,0,0,0.00120473,0.0001817,0.0169652,1.51536,-0.0273237,1.51682,0,0
42,0.0850869,-2.50889,-4.0266,0.282727,1222.39,-38.0562,19.4256,1198.28,170.652,0,0,0.00120473,0.0001817,0.0172692,1.50591,-0.0241265,1.50753,0,0
43,0.089288,-2.50893,-4.02457,0.287393,1221.34,-37.2026,19.9532,1197.03,171.879,0,0,0.00120473,0.0001817,0.0175731,1.49646,-0.0209297,1.49824,0,0
44,0.0934892,-2.50896,-4.02254,0.29206,1220.29,-36.3487,20.4807,1195.78,173.107,0,0,0.00120473,0.0001817,0.0178771,1.48701,-0.0177328,1.48895,0,0
45,0.0976903,-2.509,-4.02051,0.296726,1219.24,-35.495,21.0079,1194.54,174.334,0,0,0.00120473,0.0001817,0.0181811,1.47757,-0.0145357,1.47965,0,0
46,0.101891,-2.50904,-4.01848,0.301393,1218.2,-34.641,21.535,1193.3,175.562,0,0,0.00120473,0.0001817,0.0184851,1.46812,-0.0113386,1.47036,0,0
47,0.106093,-2.50908,-4.01645,0.306059,1217.15,-33.7871,22.0624,1192.05,176.789,0,0,0.00120473,0.0001817,0.0187891,1.45867,-0.00814171,1.46107,0,0
48,0.110294,-2.50911,-4.01441,0.310726,1216.09,-32.9334,22.5901,1190.8,178.016,0,0,0.00120473,0.0001817,0.019093,1.44922,-0.00494488,1.45178,0,0
49,0.114495,-2.50915,-4.01238,0.315392,1215.05,-32.0795,23.1171,1189.56,179.243,0,0,0.00120473,0.0001817,0.0193971,1.43977,-0.00174774,1.44249,0,0
50,0.118696,-2.50919,-4.01035,0.320059,1214,-31.2257,23.6444,1188.32,180.471,0,0,0.00120473,0.0001817,0.019701,1.43032,0.00144932,1.4332,0,0
51,0.122897,-2.50923,-4.00832,0.324725,1212.95,-30.3718,24.1719,1187.07,181.698,0,0,0.00120473,0.0001817,0.020005,1.42087,0.00464622,1.4239,0,0
52,0.127098,-2.50926,-4.00629,0.329392,1211.9,-29.5179,24.6993,1185.82,182.925,0,0,0.00120473,0.0001817,0.020309,1.41142,0.00784312,1.41461,0,0
53,0.131299,-2.5093,-4.00426,0.334058,1210.85,-28.6642,25.2266,1184.58,184.152,0,0,0.00120473,0.0001817,0.020613,1.40197,0.0110402,1.40532,0,0
54,0.1355,-2.50934,-4.00223,0.338725,1209.8,-27.8102,25.7536,1183.34,185.38,0,0,0.00120473,0.0001817,0.020917,1.39253,0.0142373,1.39603,0,0
55,0.139702,-2.50938,-4.0002,0.343391,1208.75,-26.9566,26.2813,1182.09,186.607,0,0,0.00120473,0.0001817,0.0212209,1.38308,0.0174341,1.38674,0,0
56,0.143903,-2.50941,-3.99817,0.348058,1207.7,-26.1027,26.8087,1180.84,187.834,0,0,0.00120473,0.0001817,0.0215249,1.37363,0.020631,1.37744,0,0
57,0.148104,-2.50945,-3.99613,0.352724,1206.25,-25.2812,27.1361,1179.17,189.032,0,0,0.00120473,0.0001817,0.0218949,1.3663,0.0231436,1.37026,0,0
58,0.152305,-2.50949,-3.9941,0.357391,1202.53,-24.6453,26.3182,1175.04,190.06,0,0,0.00120473,0.0001817,0.0226431,1.37112,0.0217328,1.37517,0,0
59,0.156506,-2.50953,-3.99207,0.362057,1198.8,-24.0095,25.5005,1170.91,191.088,0,0,0.00120473,0.0001817,0.0233913,1.37595,0.0203213,1.38009,0,0
60,0.160707,-2.50956,-3.99004,0.366724,1194.31,-23.6516,24.9806,1165.37,192.026,0,0,0.00120473,0.0001817,0.023787,1.37855,0.0188569,1.38274,0,0
61,0.164908,-2.5096,-3.98801,0.37139,1188.54,-23.7627,24.9629,1157.46,192.813,0,0,0.00120473,0.0001817,0.0235876,1.37741,0.0173034,1.38157,0,0
62,0.167631,-2.50961,-3.98555,0.375057,1183.93,-23.6539,24.5978,1151.6,194.179,0,0,0.00120473,0.0001817,0.0232407,1.37981,0.0158593,1.38392,0,0
63,0.170353,-2.50961,-3.9831,0.378724,1179.32,-23.5453,24.233,1145.73,195.545,0,0,0.00120473,0.0001817,0.0228939,1.38222,0.0144147,1.38628,0,0
64,0.173075,-2.50961,-3.98064,0.38239,1174.72,-23.4365,23.8679,1139.87,196.91,0,0,0.00120473,0.0001817,0.022547,1.38462,0.0129706,1.38863,0,0
65,0.175798,-2.50962,-3.97819,0.386057,1170.11,-23.3278,23.5031,1134.01,198.276,0,0,0.00120473,0.0001817,0.0222001,1.38703,0.0115259,1.39099,0,0
66,0.17852,-2.50962,-3.97573,0.389723,1165.5,-23.219,23.138,1128.15,199.642,0,0,0.00120473,0.0001817,0.0218532,1.38943,0.0100819,1.39334,0,0
67,0.181243,-2.50963,-3.97327,0.39339,1160.9,-23.1102,22.7729,1122.29,201.008,0,0,0.00120473,0.0001817,0.0215063,1.39184,0.00863772,1.3957,0,0
68,0.183965,-2.50963,-3.97082,0.397056,1156.29,-23.0016,22.4081,1116.43,202.373,0,0,0.00120473,0.0001817,0.0211594,1.39425,0.00719309,1.39805,0,0
69,0.186687,-2.50964,-3.96836,0.400723,1151.68,-22.8928,22.043,1110.57,203.739,0,0,0.00120473,0.0001817,0.0208126,1.39665,0.00574902,1.40041,0,0
70,0.18941,-2.50964,-3.9659,0.40439,1147.07,-22.7841,21.6782,1104.7,205.105,0,0,0.00120473,0.0001817,0.0204657,1.39906,0.0043044,1.40276,0,0
71,0.192132,-2.50965,-3.96345,0.408056,1142.46,-22.6753,21.3131,1098.85,206.471,0,0,0.00120473,0.0001817,0.0201188,1.40146,0.00286033,1.40511,0,0
72,0.194854,-2.50965,-3.96099,0.411723,1137.86,-22.5665,20.948,1092.99,207.836,0,0,0.00120473,0.0001817,0.0197719,1.40387,0.00141617,1.40747,0,0
73,0.197577,-2.50965,-3.95854,0.415389,1133.25,-22.4579,20.5832,1087.12,209.202,0,0,0.00120473,0.0001817,0.019425,1.40627,-2.85E-05,1.40982,0,0
74,0.200299,-2.50966,-3.95608,0.419056,1130.42,-22.0413,21.0982,1083.69,210.025,0,0,0.00120473,0.0001817,0.0192593,1.41101,0.00159981,1.41474,0,0
75,0.203021,-2.50966,-3.95362,0.422722,1128.16,-21.5251,21.8986,1081.05,210.673,0,0,0.00120473,0.0001817,0.0191522,1.4165,0.0042228,1.4205,0,0
76,0.205744,-2.50967,-3.95117,0.426389,1125.91,-21.0088,22.6987,1078.41,211.321,0,0,0.00120473,0.0001817,0.019045,1.42199,0.00684632,1.42625,0,0
77,0.208466,-2.50967,-3.94871,0.430056,1123.65,-20.4925,23.4989,1075.77,211.969,0,0,0.00120473,0.0001817,0.0189379,1.42747,0.00946983,1.43201,0,0
78,0.211189,-2.50968,-3.94626,0.433722,1121.39,-19.9763,24.2993,1073.13,212.616,0,0,0.00120473,0.0001817,0.0188308,1.43296,0.0120928,1.43776,0,0
79,0.213911,-2.50968,-3.9438,0.437389,1119.14,-19.46,25.0994,1070.49,213.264,0,0,0.00120473,0.0001817,0.0187237,1.43845,0.0147163,1.44351,0,0
80,0.216633,-2.50969,-3.94134,0.441055,1116.88,-18.9438,25.8998,1067.84,213.912,0,0,0.00120473,0.0001817,0.0186166,1.44394,0.0173393,1.44927,0,0
81,0.219356,-2.50969,-3.93889,0.444722,1114.63,-18.4275,26.6999,1065.2,214.559,0,0,0.00120473,0.0001817,0.0185095,1.44943,0.0199628,1.45502,0,0
82,0.221785,-2.50965,-3.93429,0.449919,1111.51,-17.461,27.0253,1062.29,216.721,0,0,0.00120473,0.0001817,0.0180285,1.46191,0.0226267,1.46775,0,0
83,0.224213,-2.50961,-3.9297,0.455116,1108.39,-16.4945,27.3506,1059.38,218.883,0,0,0.00120473,0.0001817,0.0175476,1.47438,0.0252907,1.48048,0,0
84,0.226642,-2.50958,-3.9251,0.460312,1105.26,-15.5281,27.676,1056.46,221.045,0,0,0.00120473,0.0001817,0.0170666,1.48686,0.0279546,1.49322,0,0
85,0.229071,-2.50954,-3.92051,0.465509,1104.7,-13.8594,26.9523,1055.88,223.316,0,0,0.00120473,0.0001817,0.0166575,1.49682,0.0290576,1.50347,0,0
86,0.2315,-2.5095,-3.91592,0.470706,1109.1,-10.8316,24.198,1059.8,225.799,0,0,0.00120473,0.0001817,0.0163876,1.50189,0.0271392,1.50892,0,0
87,0.233929,-2.50946,-3.91132,0.475903,1113.49,-7.80383,21.4436,1063.72,228.281,0,0,0.00120473,0.0001817,0.0161177,1.50697,0.0252207,1.51437,0,0
88,0.236358,-2.50942,-3.90673,0.4811,1117.88,-4.77593,18.6891,1067.64,230.763,0,0,0.00120473,0.0001817,0.0158478,1.51204,0.0233021,1.51982,0,0
89,0.238787,-2.50938,-3.90213,0.486297,1122.28,-1.74816,15.9348,1071.56,233.245,0,0,0.00120473,0.0001817,0.0155779,1.51711,0.0213836,1.52527,0,0
90,0.241216,-2.50935,-3.89754,0.491494,1126.67,1.27974,13.1803,1075.48,235.727,0,0,0.00120473,0.0001817,0.0153079,1.52219,0.019465,1.53073,0,0
91,0.243645,-2.50931,-3.89295,0.496691,1131.06,4.3075,10.4262,1079.39,238.209,0,0,0.00120473,0.0001817,0.015038,1.52726,0.0175458,1.53618,0,0
92,0.246073,-2.50927,-3.88835,0.501887,1135.45,7.33527,7.67187,1083.31,240.692,0,0,0.00120473,0.0001817,0.0147681,1.53234,0.0156273,1.54163,0,0
93,0.248502,-2.50923,-3.88376,0.507084,1139.84,10.3632,4.91739,1087.23,243.174,0,0,0.00120473,0.0001817,0.0144982,1.53741,0.0137087,1.54708,0,0
94,0.250931,-2.50919,-3.87916,0.512281,1143.7,12.9938,2.83046,1090.62,245.761,0,0,0.00120473,0.0001817,0.014242,1.53907,0.0128639,1.54919,0,0
95,0.25336,-2.50916,-3.87457,0.517478,1145.01,13.7539,3.88734,1091.52,248.841,0,0,0.00120473,0.0001817,0.0140503,1.52467,0.017077,1.53557,0,0
96,0.255789,-2.50912,-3.86997,0.522675,1146.33,14.5139,4.94418,1092.42,251.922,0,0,0.00120473,0.0001817,0.0138586,1.51027,0.0212899,1.52195,0,0
97,0.258218,-2.50908,-3.86538,0.527872,1147.64,15.274,6.00103,1093.32,255.002,0,0,0.00120473,0.0001817,0.0136669,1.49586,0.0255028,1.50832,0,0
98,0.260647,-2.50904,-3.86079,0.533069,1148.96,16.034,7.0579,1094.22,258.083,0,0,0.00120473,0.0001817,0.0134752,1.48146,0.0297159,1.4947,0,0
99,0.263076,-2.509,-3.85619,0.538266,1150.27,16.7941,8.11475,1095.12,261.163,0,0,0.00120473,0.0001817,0.0132835,1.46706,0.0339288,1.48108,0,0
100,0.265505,-2.50897,-3.8516,0.543462,1151.59,17.5541,9.17162,1096.02,264.244,0,0,0.00120473,0.0001817,0.0130918,1.45265,0.0381419,1.46746,0,0
101,0.267934,-2.50893,-3.847,0.548659,1152.9,18.3142,10.2285,1096.92,267.324,0,0,0.00120473,0.0001817,0.0129001,1.43825,0.0423548,1.45384,0,0
102,0.269011,-2.50888,-3.84344,0.55238,1153.71,18.7926,10.848,1097.75,269.956,0,0,0.00120473,0.0001817,0.0126471,1.42888,0.0451601,1.44498,0,0
103,0.270088,-2.50884,-3.83988,0.5561,1154.52,19.2709,11.4677,1098.57,272.589,0,0,0.00120473,0.0001817,0.0123942,1.41951,0.0479646,1.43613,0,0
104,0.271166,-2.5088,-3.83632,0.559821,1155.33,19.7493,12.0873,1099.4,275.221,0,0,0.00120473,0.0001817,0.0121412,1.41015,0.0507699,1.42727,0,0
105,0.272243,-2.50875,-3.83276,0.563541,1156.14,20.2277,12.7068,1100.22,277.854,0,0,0.00120473,0.0001817,0.0118883,1.40078,0.0535752,1.41842,0,0
106,0.273321,-2.50871,-3.8292,0.567262,1156.95,20.7061,13.3264,1101.05,280.487,0,0,0.00120473,0.0001817,0.0116353,1.39141,0.0563805,1.40956,0,0
107,0.274398,-2.50867,-3.82564,0.570982,1157.76,21.1844,13.9461,1101.87,283.119,0,0,0.00120473,0.0001817,0.0113824,1.38204,0.0591849,1.40071,0,0
108,0.275476,-2.50862,-3.82208,0.574702,1158.57,21.6628,14.5656,1102.69,285.751,0,0,0.00120473,0.0001817,0.0111294,1.37268,0.0619902,1.39185,0,0
109,0.276553,-2.50858,-3.81852,0.578423,1160.36,22.2711,13.9908,1105.82,288.688,0,0,0.00120473,0.0001817,0.0101336,1.36643,0.0645144,1.38596,0,0
110,0.27763,-2.50853,-3.81496,0.582143,1163.32,23.0345,11.9902,1111.7,291.986,0,0,0.00120473,0.0001817,0.00825073,1.36391,0.0667021,1.38359,0,0
111,0.278708,-2.50849,-3.8114,0.585864,1166.29,23.7979,9.98948,1117.59,295.285,0,0,0.00120473,0.0001817,0.00636799,1.36139,0.0688907,1.38122,0,0
112,0.279785,-2.50845,-3.80784,0.589584,1169.25,24.5612,7.98881,1123.47,298.584,0,0,0.00120473,0.0001817,0.00448524,1.35887,0.0710792,1.37884,0,0
113,0.280863,-2.5084,-3.80427,0.593305,1172.21,25.3246,5.98813,1129.36,301.883,0,0,0.00120473,0.0001817,0.00260241,1.35636,0.073267,1.37647,0,0
114,0.28194,-2.50836,-3.80071,0.597025,1175.18,26.088,3.98746,1135.24,305.182,0,0,0.00120473,0.0001817,0.000719663,1.35384,0.0754556,1.3741,0,0
115,0.283018,-2.50832,-3.79715,0.600746,1178.14,26.8513,1.98681,1141.13,308.481,0,0,0.00120473,0.0001817,-0.00116307,1.35132,0.0776441,1.37173,0,0
116,0.284095,-2.50827,-3.79359,0.604466,1181.1,27.6147,-0.0137086,1147.01,311.78,0,0,0.00120473,0.0001817,-0.00304577,1.3488,0.0798318,1.36936,0,0
117,0.285172,-2.50823,-3.79003,0.608186,1184.07,28.3781,-2.01438,1152.89,315.079,0,0,0.00120473,0.0001817,-0.00492851,1.34628,0.0820203,1.36699,0,0
118,0.28625,-2.50819,-3.78647,0.611907,1187.03,29.1414,-4.01503,1158.78,318.378,0,0,0.00120473,0.0001817,-0.00681124,1.34376,0.0842089,1.36462,0,0
119,0.287327,-2.50814,-3.78291,0.615627,1190,29.9048,-6.01571,1164.66,321.677,0,0,0.00120473,0.0001817,-0.00869398,1.34124,0.0863974,1.36225,0,0
120,0.288405,-2.5081,-3.77935,0.619348,1192.96,30.6682,-8.01638,1170.54,324.976,0,0,0.00120473,0.0001817,-0.0105768,1.33872,0.0885852,1.35988,0,0
121,0.289482,-2.50806,-3.77579,0.623068,1195.92,31.4316,-10.0171,1176.43,328.274,0,0,0.00120473,0.0001817,-0.0124596,1.3362,0.0907738,1.35751,0,0
122,0.288544,-2.50795,-3.77054,0.628399,1200.31,32.2989,-14.4187,1187.1,334.114,0,0,0.00120473,0.0001817,-0.0160759,1.34029,0.0923594,1.36142,0,0
123,0.287605,-2.50784,-3.7653,0.633729,1204.7,33.1664,-18.8206,1197.76,339.953,0,0,0.00120473,0.0001817,-0.0196925,1.34438,0.0939443,1.36532,0,0
124,0.286666,-2.50773,-3.76005,0.639059,1205.38,33.6597,-19.1114,1199.98,345.092,0,0,0.00120473,0.0001817,-0.0211385,1.34419,0.0966071,1.365,0,0
125,0.285728,-2.50762,-3.7548,0.64439,1204.3,34.0533,-18.0775,1198.98,349.979,0,0,0.00120473,0.0001817,-0.0219599,1.34301,0.0992969,1.36376,0,0
126,0.284789,-2.50751,-3.74956,0.64972,1197.5,34.5933,-16.4873,1192.14,354.531,0,0,0.00120473,0.0001817,-0.0231953,1.34506,0.0991123,1.366,0,0
127,0.283851,-2.50741,-3.74431,0.655051,1190.71,35.1333,-14.8972,1185.3,359.083,0,0,0.00120473,0.0001817,-0.0244307,1.3471,0.0989277,1.36825,0,0
128,0.282912,-2.5073,-3.73907,0.660381,1183.91,35.6732,-13.3072,1178.45,363.636,0,0,0.00120473,0.0001817,-0.0256662,1.34915,0.0987423,1.3705,0,0
129,0.281974,-2.50719,-3.73382,0.665711,1177.12,36.2132,-11.717,1171.6,368.188,0,0,0.00120473,0.0001817,-0.0269016,1.35119,0.0985577,1.37274,0,0
130,0.281035,-2.50708,-3.72857,0.671042,1170.32,36.7532,-10.127,1164.76,372.74,0,0,0.00120473,0.0001817,-0.0281371,1.35324,0.0983723,1.37499,0,0
131,0.280097,-2.50697,-3.72333,0.676372,1163.53,37.2931,-8.53686,1157.91,377.292,0,0,0.00120473,0.0001817,-0.0293725,1.35528,0.0981878,1.37723,0,0
132,0.279158,-2.50687,-3.71808,0.681703,1156.73,37.8331,-6.94669,1151.07,381.845,0,0,0.00120473,0.0001817,-0.0306079,1.35732,0.0980032,1.37948,0,0
133,0.278219,-2.50676,-3.71284,0.687033,1149.94,38.3731,-5.35665,1144.22,386.397,0,0,0.00120473,0.0001817,-0.0318434,1.35937,0.0978178,1.38172,0,0
134,0.277281,-2.50665,-3.70759,0.692363,1143.14,38.913,-3.76649,1137.38,390.949,0,0,0.00120473,0.0001817,-0.0330788,1.36141,0.0976332,1.38397,0,0
135,0.276342,-2.50654,-3.70234,0.697694,1136.35,39.453,-2.17645,1130.53,395.501,0,0,0.00120473,0.0001817,-0.0343143,1.36346,0.0974478,1.38621,0,0
136,0.275404,-2.50643,-3.6971,0.703024,1129.55,39.9929,-0.58635,1123.69,400.053,0,0,0.00120473,0.0001817,-0.0355497,1.3655,0.0972632,1.38846,0,0
137,0.274465,-2.50633,-3.69185,0.708355,1122.76,40.5329,1.00382,1116.84,404.606,0,0,0.00120473,0.0001817,-0.0367851,1.36755,0.0970786,1.3907,0,0
138,0.273527,-2.50622,-3.68661,0.713685,1126.36,40.1885,-0.0039922,1119.36,411.679,0,0,0.00120473,0.0001817,-0.0377378,1.36335,0.0994084,1.38684,0,0
139,0.272588,-2.50611,-3.68136,0.719015,1136.22,39.3113,-2.57691,1127.53,420.273,0,0,0.00120473,0.0001817,-0.0385199,1.3554,0.103254,1.3793,0,0
140,0.27165,-2.506,-3.67611,0.724346,1146.08,38.434,-5.15016,1135.7,428.867,0,0,0.00120473,0.0001817,-0.0393022,1.34745,0.1071,1.37175,0,0
141,0.270711,-2.50589,-3.67087,0.729676,1155.94,37.5568,-7.72308,1143.86,437.46,0,0,0.00120473,0.0001817,-0.0400843,1.3395,0.110946,1.36421,0,0
142,0.268811,-2.50579,-3.66685,0.734125,1163.63,36.6687,-9.70638,1150.3,444.439,0,0,0.00120473,0.0001817,-0.0406217,1.3358,0.113708,1.36061,0,0
143,0.266912,-2.50569,-3.66283,0.738574,1171.32,35.7806,-11.6897,1156.75,451.419,0,0,0.00120473,0.0001817,-0.0411592,1.3321,0.11647,1.35701,0,0
144,0.265012,-2.50558,-3.6588,0.743022,1179,34.8925,-13.6732,1163.18,458.399,0,0,0.00120473,0.0001817,-0.0416967,1.3284,0.119231,1.35341,0,0
145,0.263113,-2.50548,-3.65478,0.747471,1186.69,34.0044,-15.6565,1169.62,465.378,0,0,0.00120473,0.0001817,-0.0422341,1.3247,0.121993,1.34981,0,0
146,0.261213,-2.50538,-3.65076,0.75192,1194.38,33.1164,-17.6397,1176.07,472.357,0,0,0.00120473,0.0001817,-0.0427715,1.321,0.124755,1.34621,0,0
147,0.259313,-2.50527,-3.64674,0.756368,1202.06,32.2283,-19.6232,1182.5,479.337,0,0,0.00120473,0.0001817,-0.043309,1.3173,0.127516,1.34261,0,0
148,0.257414,-2.50517,-3.64272,0.760817,1209.75,31.3402,-21.6065,1188.95,486.317,0,0,0.00120473,0.0001817,-0.0438465,1.3136,0.130278,1.33901,0,0
149,0.255514,-2.50507,-3.6387,0.765266,1210.36,30.8259,-21.6128,1188.89,490.478,0,0,0.00120473,0.0001817,-0.0444363,1.31272,0.13085,1.33803,0,0
150,0.253615,-2.50496,-3.63468,0.769714,1205.1,30.6213,-19.9818,1183.45,492.305,0,0,0.00120473,0.0001817,-0.0450696,1.31417,0.12961,1.33921,0,0
151,0.251715,-2.50486,-3.63065,0.774163,1199.84,30.4167,-18.3508,1178.01,494.131,0,0,0.00120473,0.0001817,-0.0457028,1.31562,0.128369,1.34038,0,0
152,0.249815,-2.50476,-3.62663,0.778612,1194.58,30.212,-16.72,1172.56,495.958,0,0,0.00120473,0.0001817,-0.0463362,1.31707,0.127127,1.34156,0,0
153,0.247916,-2.50465,-3.62261,0.78306,1189.33,30.0074,-15.089,1167.12,497.785,0,0,0.00120473,0.0001817,-0.0469694,1.31851,0.125886,1.34274,0,0
154,0.246016,-2.50455,-3.61859,0.787509,1184.07,29.8027,-13.458,1161.68,499.612,0,0,0.00120473,0.0001817,-0.0476027,1.31996,0.124646,1.34392,0,0
155,0.244117,-2.50444,-3.61457,0.791958,1178.81,29.5981,-11.8272,1156.24,501.439,0,0,0.00120473,0.0001817,-0.048236,1.32141,0.123404,1.34509,0,0
156,0.242217,-2.50434,-3.61055,0.796406,1175.83,28.9796,-10.0265,1150.9,504.289,0,0,0.00120473,0.0001817,-0.0480159,1.33259,0.122665,1.35637,0,0
157,0.240317,-2.50424,-3.60653,0.800855,1173.57,28.2096,-8.10671,1145.67,507.558,0,0,0.00120473,0.0001817,-0.0473566,1.34665,0.122095,1.37062,0,0
158,0.238418,-2.50413,-3.6025,0.805304,1171.33,27.4061,-6.108,1140.53,510.96,0,0,0.00120473,0.0001817,-0.0464834,1.36072,0.121551,1.3849,0,0
159,0.236518,-2.50403,-3.59848,0.809752,1169.14,26.5693,-4.02944,1135.48,514.496,0,0,0.00120473,0.0001817,-0.0453946,1.37482,0.121034,1.3992,0,0
160,0.234619,-2.50393,-3.59446,0.814201,1166.98,25.6989,-1.87024,1130.51,518.167,0,0,0.00120473,0.0001817,-0.044088,1.38894,0.120544,1.41353,0,0
161,0.232719,-2.50382,-3.59044,0.81865,1164.86,24.7951,0.371063,1125.63,521.973,0,0,0.00120473,0.0001817,-0.0425619,1.4031,0.120084,1.42789,0,0
162,0.22895,-2.50368,-3.5858,0.824627,1154.67,24.7504,2.64445,1117.55,522.708,0,0,0.00120473,0.0001817,-0.044099,1.39681,0.116875,1.4206,0,0
163,0.225181,-2.50353,-3.58117,0.830605,1144.3,24.7576,4.88358,1109.34,523.308,0,0,0.00120473,0.0001817,-0.0457982,1.39103,0.113736,1.41382,0,0
164,0.221413,-2.50338,-3.57653,0.836583,1133.74,24.8175,7.08751,1101,523.771,0,0,0.00120473,0.0001817,-0.0476618,1.38578,0.110668,1.40754,0,0
165,0.217644,-2.50324,-3.57189,0.84256,1122.99,24.931,9.25667,1092.54,524.096,0,0,0.00120473,0.0001817,-0.0496912,1.38106,0.107673,1.40177,0,0
166,0.213875,-2.50309,-3.56725,0.848538,1113.49,24.869,11.7831,1084.66,526.097,0,0,0.00120473,0.0001817,-0.0508221,1.38217,0.105227,1.402,0,0
167,0.210106,-2.50294,-3.56262,0.854516,1113.65,23.1499,17.2507,1081.82,541.665,0,0,0.00120473,0.0001817,-0.043794,1.4229,0.106331,1.44326,0,0
168,0.206337,-2.5028,-3.55798,0.860493,1112.09,21.4438,22.8394,1078.66,557.696,0,0,0.00120473,0.0001817,-0.0360734,1.46474,0.107472,1.48543,0,0
169,0.202569,-2.50265,-3.55334,0.866471,1108.82,19.7515,28.5538,1075.19,574.189,0,0,0.00120473,0.0001817,-0.0276556,1.50774,0.108656,1.52857,0,0
170,0.1988,-2.5025,-3.5487,0.872449,1103.84,18.0733,34.3972,1071.41,591.145,0,0,0.00120473,0.0001817,-0.0185365,1.5519,0.10989,1.57269,0,0
171,0.195031,-2.50236,-3.54407,0.878426,1097.14,16.4099,40.3749,1067.31,608.563,0,0,0.00120473,0.0001817,-0.00871068,1.59728,0.111182,1.61782,0,0
172,0.191262,-2.50221,-3.53943,0.884404,1088.72,14.7618,46.49,1062.9,626.444,0,0,0.00120473,0.0001817,0.00182587,1.64389,0.112537,1.664,0,0
173,0.187493,-2.50206,-3.53479,0.890382,1078.58,13.1295,52.7475,1058.19,644.788,0,0,0.00120473,0.0001817,0.0130785,1.69177,0.113964,1.71126,0,0
174,0.183724,-2.50192,-3.53015,0.896359,1066.72,11.5135,59.1523,1053.16,663.595,0,0,0.00120473,0.0001817,0.025053,1.74096,0.115471,1.75963,0,0
175,0.179956,-2.50177,-3.52551,0.902337,1053.14,9.91441,65.7077,1047.83,682.866,0,0,0.00120473,0.0001817,0.037753,1.79148,0.117062,1.80914,0,0
176,0.176187,-2.50162,-3.52088,0.908315,1052.43,8.33545,71.1773,1047.56,684.134,0,0,0.00120473,0.0001817,0.0430394,1.82265,0.113922,1.83998,0,0
177,0.172418,-2.50148,-3.51624,0.914292,1053.95,7.11338,77.0586,1048.43,682.544,0,0,0.00120473,0.0001817,0.0464114,1.85372,0.1108,1.8708,0,0
178,0.168649,-2.50133,-3.5116,0.92027,1056.03,6.27076,83.537,1049.81,680.299,0,0,0.00120473,0.0001817,0.048775,1.88735,0.108335,1.90415,0,0
179,0.16488,-2.50118,-3.50696,0.926248,1058.68,5.80986,90.6229,1051.71,677.398,0,0,0.00120473,0.0001817,0.0501335,1.92361,0.10654,1.94011,0,0
180,0.161112,-2.50104,-3.50233,0.932225,1064.86,5.40256,98.3372,1053.99,674.94,0,0,0.00120473,0.0001817,0.0507696,2.07169,0.0821723,2.08856,0,0
181,0.157343,-2.50089,-3.49769,0.938203,1076.71,4.81219,106.658,1056.34,673.908,0,0,0.00120473,0.0001817,0.0518366,2.46311,0.0131295,2.48157,0,0
182,0.152814,-2.50079,-3.49627,0.942951,1072.08,6.11137,106.107,1055.31,665.053,0,0,0.00120473,0.0001817,0.0423608,2.28433,0.038102,2.30102,0,0
183,0.148284,-2.50068,-3.49485,0.947699,1067.38,7.31957,105.694,1054.41,656.411,0,0,0.00120473,0.0001817,0.0326167,2.10587,0.0596218,2.12094,0,0
184,0.143755,-2.50058,-3.49343,0.952446,1062.61,8.43579,105.42,1053.66,647.983,0,0,0.00120473,0.0001817,0.0226045,1.92782,0.0776555,1.94143,0,0
185,0.139226,-2.50048,-3.49201,0.957194,1061.01,9.13283,105.075,1052.43,640.87,0,0,0.00120473,0.0001817,0.0141381,1.88612,0.071629,1.89891,0,0
186,0.134697,-2.50037,-3.49059,0.961942,1059.64,9.72528,104.739,1051.09,633.988,0,0,0.00120473,0.0001817,0.00622412,1.8581,0.0635936,1.87011,0,0
187,0.130168,-2.50027,-3.48917,0.966689,1058.19,10.245,104.426,1049.68,627.228,0,0,0.00120473,0.0001817,-0.00128051,1.8307,0.055685,1.84192,0,0
188,0.125639,-2.50016,-3.48775,0.971437,1056.65,10.6915,104.137,1048.19,620.591,0,0,0.00120473,0.0001817,-0.00837354,1.80392,0.0479035,1.81434,0,0
189,0.121109,-2.50006,-3.48633,0.976185,1055.03,11.0641,103.872,1046.63,614.08,0,0,0.00120473,0.0001817,-0.0150518,1.77776,0.0402497,1.78737,0,0
190,0.11658,-2.49996,-3.48491,0.980933,1053.33,11.3627,103.631,1044.99,607.691,0,0,0.00120473,0.0001817,-0.0213137,1.75221,0.0327246,1.76101,0,0
191,0.112051,-2.49985,-3.48349,0.98568,1051.54,11.5865,103.414,1043.29,601.429,0,0,0.00120473,0.0001817,-0.027156,1.7273,0.0253288,1.73526,0,0
192,0.107522,-2.49975,-3.48207,0.990428,1049.66,11.7351,103.22,1041.5,595.292,0,0,0.00120473,0.0001817,-0.0325765,1.70302,0.0180624,1.71014,0,0
193,0.102993,-2.49965,-3.48065,0.995176,1047.7,11.808,103.05,1039.65,589.283,0,0,0.00120473,0.0001817,-0.0375726,1.67936,0.0109258,1.68564,0,0
194,0.0984635,-2.49954,-3.47923,0.999924,1045.66,11.8045,102.903,1037.71,583.403,0,0,0.00120473,0.0001817,-0.0421415,1.65634,0.00391941,1.66177,0,0
195,0.0939343,-2.49944,-3.47781,1.00467,1043.82,13.5997,106.381,1035.37,587.629,0,0,0.00120473,0.0001817,-0.0464697,1.66643,0.00802107,1.67158,0,0
196,0.0894051,-2.49933,-3.47639,1.00942,1042.03,16.0319,111.018,1032.87,595.103,0,0,0.00120473,0.0001817,-0.0508743,1.68712,0.0158258,1.69219,0,0
197,0.084876,-2.49923,-3.47497,1.01417,1040.21,18.518,115.661,1030.34,602.629,0,0,0.00120473,0.0001817,-0.0553562,1.70798,0.0238374,1.71296,0,0
198,0.0803468,-2.49913,-3.47355,1.01891,1038.35,21.058,120.309,1027.78,610.207,0,0,0.00120473,0.0001817,-0.0599154,1.72901,0.0320557,1.73389,0,0
199,0.0758176,-2.49902,-3.47213,1.02366,1036.45,23.652,124.964,1025.17,617.838,0,0,0.00120473,0.0001817,-0.0645522,1.75023,0.040481,1.755,0,0
200,0.0712884,-2.49892,-3.47071,1.02841,1034.51,26.2999,129.625,1022.53,625.521,0,0,0.00120473,0.0001817,-0.0692662,1.77161,0.0491132,1.77627,0,0
201,0.0667592,-2.49882,-3.46929,1.03316,1032.54,29.0019,134.293,1019.85,633.256,0,0,0.00120473,0.0001817,-0.074058,1.79317,0.0579529,1.79771,0,0
202,0.0596781,-2.49869,-3.46891,1.04025,1027.26,32.0043,138.201,1013.92,645.136,0,0,0.00120473,0.0001817,-0.0794506,1.80222,0.0676766,1.80646,0,0
203,0.0525969,-2.49856,-3.46853,1.04734,1022.32,34.7468,142.237,1008.32,656.565,0,0,0.00120473,0.0001817,-0.0844619,1.81114,0.0763663,1.8151,0,0
204,0.0455158,-2.49843,-3.46816,1.05443,1022.29,33.4473,143.811,1008.07,661.761,0,0,0.00120473,0.0001817,-0.0882919,1.82376,0.0712108,1.82791,0,0
205,0.0384346,-2.4983,-3.46778,1.06153,1023.25,31.3348,144.861,1008.92,665.755,0,0,0.00120473,0.0001817,-0.0920617,1.83739,0.0631689,1.84184,0,0
206,0.0313535,-2.49817,-3.4674,1.06862,1024.2,29.2411,145.929,1009.74,669.828,0,0,0.00120473,0.0001817,-0.0959887,1.85124,0.0550598,1.85601,0,0
207,0.0242723,-2.49804,-3.46703,1.07571,1025.13,27.1662,147.016,1010.55,673.981,0,0,0.00120473,0.0001817,-0.100073,1.86532,0.0468834,1.87041,0,0
208,0.0171912,-2.49791,-3.46665,1.0828,1026.05,25.1102,148.121,1011.34,678.213,0,0,0.00120473,0.0001817,-0.104315,1.87961,0.0386397,1.88504,0,0
209,0.01011,-2.49778,-3.46628,1.0899,1026.95,23.0729,149.244,1012.12,682.524,0,0,0.00120473,0.0001817,-0.108715,1.89414,0.0303286,1.8999,0,0
210,0.00302887,-2.49765,-3.4659,1.09699,1027.83,21.0545,150.387,1012.87,686.915,0,0,0.00120473,0.0001817,-0.113273,1.90888,0.0219503,1.915,0,0
211,-0.00405228,-2.49752,-3.46552,1.10408,1028.7,19.0551,151.548,1013.61,691.386,0,0,0.00120473,0.0001817,-0.117988,1.92385,0.0135046,1.93033,0,0
212,-0.0111334,-2.49739,-3.46515,1.11117,1029.55,17.0742,152.727,1014.33,695.934,0,0,0.00120473,0.0001817,-0.12286,1.93904,0.00499129,1.94589,0,0
213,-0.0182146,-2.49726,-3.46477,1.11827,1030.38,15.1123,153.925,1015.03,700.563,0,0,0.00120473,0.0001817,-0.12789,1.95445,-0.00358929,1.96169,0,0
214,-0.0252957,-2.49713,-3.46439,1.12536,1031.2,13.1692,155.142,1015.72,705.27,0,0,0.00120473,0.0001817,-0.133079,1.97009,-0.0122375,1.97772,0,0
215,-0.0323769,-2.497,-3.46402,1.13245,1032,11.245,156.378,1016.38,710.057,0,0,0.00120473,0.0001817,-0.138425,1.98596,-0.0209531,1.99399,0,0
216,-0.039458,-2.49687,-3.46364,1.13954,1032.79,9.33959,157.633,1017.03,714.922,0,0,0.00120473,0.0001817,-0.143929,2.00204,-0.0297365,2.01049,0,0
217,-0.0465392,-2.49674,-3.46326,1.14664,1038.97,9.62144,156.643,1022.76,714.098,0,0,0.00120473,0.0001817,-0.1513,2.00975,-0.0333585,2.01898,0,0
218,-0.0536203,-2.49661,-3.46289,1.15373,1048.26,11.1782,154.583,1031.33,710.103,0,0,0.00120473,0.0001817,-0.159873,2.01348,-0.0340666,2.02372,0,0
219,-0.0607015,-2.49648,-3.46251,1.16082,1057.84,12.8945,152.658,1040.09,705.924,0,0,0.00120473,0.0001817,-0.168778,2.01782,-0.0345597,2.02913,0,0
220,-0.0677827,-2.49635,-3.46214,1.16791,1067.74,14.7691,150.871,1049.05,701.56,0,0,0.00120473,0.0001817,-0.178016,2.02278,-0.0348412,2.0352,0,0
221,-0.0748638,-2.49622,-3.46176,1.175,1077.94,16.8015,149.22,1058.2,697.015,0,0,0.00120473,0.0001817,-0.187584,2.02834,-0.0349118,2.04194,0,0
222,-0.0787285,-2.49618,-3.46306,1.17908,1082.58,17.2148,143.82,1062.78,691.048,0,0,0.00120473,0.0001817,-0.185183,1.99566,-0.032607,2.00937,0,0
223,-0.0825931,-2.49613,-3.46436,1.18316,1087.13,17.5429,138.471,1067.31,685.14,0,0,0.00120473,0.0001817,-0.182728,1.96335,-0.0305492,1.97714,0,0
224,-0.0864578,-2.49609,-3.46565,1.18724,1091.84,17.4121,134.229,1072.02,680.707,0,0,0.00120473,0.0001817,-0.180833,1.93939,-0.0298579,1.95332,0,0
225,-0.0903224,-2.49604,-3.46695,1.19131,1097.85,15.342,135.361,1077.79,683.382,0,0,0.00120473,0.0001817,-0.181979,1.95599,-0.0349323,1.97041,0,0
226,-0.0941871,-2.496,-3.46825,1.19539,1103.89,13.2217,136.538,1083.61,685.964,0,0,0.00120473,0.0001817,-0.183049,1.97293,-0.0400649,1.98781,0,0
227,-0.0980518,-2.49595,-3.46955,1.19947,1109.96,11.0514,137.76,1089.46,688.452,0,0,0.00120473,0.0001817,-0.184042,1.99021,-0.0452553,2.00552,0,0
228,-0.101916,-2.49591,-3.47085,1.20355,1116.05,8.8315,139.027,1095.35,690.849,0,0,0.00120473,0.0001817,-0.184961,2.00782,-0.0505032,2.02355,0,0
229,-0.105781,-2.49586,-3.47215,1.20762,1122.17,6.56155,140.338,1101.28,693.151,0,0,0.00120473,0.0001817,-0.185804,2.02575,-0.0558089,2.04187,0,0
230,-0.109646,-2.49582,-3.47345,1.2117,1130.27,4.34414,142.019,1107.43,696.568,0,0,0.00120473,0.0001817,-0.182792,2.08947,-0.0563994,2.10574,0,0
231,-0.11351,-2.49578,-3.47474,1.21578,1139.72,2.14091,143.953,1113.67,700.753,0,0,0.00120473,0.0001817,-0.177515,2.19251,-0.0520096,2.20882,0,0
232,-0.117375,-2.49573,-3.47604,1.21985,1148.94,-0.132924,145.876,1119.85,704.732,0,0,0.00120473,0.0001817,-0.173143,2.30022,-0.046017,2.31665,0,0
233,-0.12124,-2.49569,-3.47734,1.22393,1157.94,-2.47673,147.787,1125.97,708.509,0,0,0.00120473,0.0001817,-0.169672,2.4126,-0.0384258,2.42923,0,0
234,-0.125104,-2.49564,-3.47864,1.22801,1166.71,-4.89036,149.685,1132.03,712.084,0,0,0.00120473,0.0001817,-0.1671,2.5296,-0.0292457,2.54651,0,0
235,-0.128969,-2.4956,-3.47994,1.23209,1175.26,-7.37329,151.574,1138.03,715.459,0,0,0.00120473,0.0001817,-0.16542,2.65126,-0.0184761,2.66853,0,0
236,-0.132834,-2.49555,-3.48124,1.23616,1183.58,-9.92507,153.451,1143.97,718.636,0,0,0.00120473,0.0001817,-0.16463,2.77757,-0.00612361,2.79527,0,0
237,-0.136698,-2.49551,-3.48254,1.24024,1191.68,-12.5461,155.317,1149.84,721.612,0,0,0.00120473,0.0001817,-0.164727,2.90846,0.0078005,2.92667,0,0
238,-0.140563,-2.49546,-3.48383,1.24432,1199.56,-15.2357,157.173,1155.66,724.391,0,0,0.00120473,0.0001817,-0.165707,3.04393,0.0232928,3.06273,0,0
239,-0.144428,-2.49542,-3.48513,1.24839,1207.21,-17.9935,159.017,1161.42,726.972,0,0,0.00120473,0.0001817,-0.167566,3.18395,0.0403454,3.20341,0,0
240,-0.148292,-2.49537,-3.48643,1.25247,1214.65,-20.8196,160.852,1167.12,729.357,0,0,0.00120473,0.0001817,-0.1703,3.32854,0.0589562,3.34874,0,0
241,-0.152157,-2.49533,-3.48773,1.25655,1221.86,-23.7135,162.677,1172.77,731.547,0,0,0.00120473,0.0001817,-0.173907,3.47766,0.0791175,3.49869,0,0
242,-0.1569,-2.4953,-3.49059,1.26209,1226.33,-27.3837,159.257,1178.4,729.912,0,0,0.00120473,0.0001817,-0.175526,3.44455,0.0755706,3.46615,0,0
243,-0.161642,-2.49527,-3.49345,1.26763,1230.87,-31.0246,155.903,1184.12,728.401,0,0,0.00120473,0.0001817,-0.176669,3.40987,0.071385,3.43201,0,0
244,-0.166385,-2.49523,-3.49632,1.27317,1235.49,-34.6363,152.617,1189.91,727.016,0,0,0.00120473,0.0001817,-0.177339,3.37367,0.0665681,3.39631,0,0
245,-0.171127,-2.4952,-3.49918,1.27871,1240.18,-38.2188,149.397,1195.79,725.755,0,0,0.00120473,0.0001817,-0.177535,3.33586,0.0611087,3.35897,0,0
246,-0.17587,-2.49517,-3.50204,1.28425,1244.94,-41.7722,146.242,1201.74,724.617,0,0,0.00120473,0.0001817,-0.177258,3.2965,0.0550139,3.32003,0,0
247,-0.180613,-2.49514,-3.50491,1.28979,1249.78,-45.2963,143.154,1207.76,723.604,0,0,0.00120473,0.0001817,-0.176513,3.25565,0.0482957,3.27956,0,0
248,-0.185355,-2.4951,-3.50777,1.29533,1254.7,-48.7916,140.13,1213.87,722.714,0,0,0.00120473,0.0001817,-0.175295,3.21318,0.0409338,3.23743,0,0
249,-0.190098,-2.49507,-3.51063,1.30087,1259.69,-52.258,137.172,1220.05,721.945,0,0,0.00120473,0.0001817,-0.173608,3.16915,0.0329397,3.1937,0,0
250,-0.19484,-2.49504,-3.51349,1.30641,1264.75,-55.6954,134.279,1226.31,721.3,0,0,0.00120473,0.0001817,-0.171453,3.12357,0.0243144,3.14838,0,0
251,-0.199583,-2.49501,-3.51636,1.31195,1272.03,-57.2817,130.298,1233.8,715.275,0,0,0.00120473,0.0001817,-0.168963,3.07221,0.0230588,3.09837,0,0
252,-0.204326,-2.49497,-3.51922,1.31749,1280.69,-57.7186,125.6,1242.02,705.798,0,0,0.00120473,0.0001817,-0.166004,3.0175,0.0265436,3.04572,0,0
253,-0.209068,-2.49494,-3.52208,1.32303,1289.38,-58.1785,120.905,1250.19,696.364,0,0,0.00120473,0.0001817,-0.162465,2.96227,0.0297135,2.99254,0,0
254,-0.213811,-2.49491,-3.52495,1.32857,1298.08,-58.6613,116.216,1258.33,686.972,0,0,0.00120473,0.0001817,-0.15835,2.90656,0.0325759,2.93886,0,0
255,-0.218553,-2.49488,-3.52781,1.33411,1306.81,-59.1674,111.533,1266.43,677.624,0,0,0.00120473,0.0001817,-0.153665,2.85042,0.0351386,2.88474,0,0
256,-0.223296,-2.49484,-3.53067,1.33965,1314.5,-60.9403,113.229,1270.69,676.851,0,0,0.00120473,0.0001817,-0.181657,3.204,0.10026,3.24167,0,0
257,-0.228039,-2.49481,-3.53354,1.34519,1320.37,-63.7244,119.199,1272.74,681.048,0,0,0.00120473,0.0001817,-0.231249,3.82475,0.214861,3.86779,0,0
258,-0.232781,-2.49478,-3.5364,1.35073,1324.77,-66.8247,125.71,1274.87,685.042,0,0,0.00120473,0.0001817,-0.282918,4.47068,0.343728,4.52058,0,0
259,-0.237524,-2.49475,-3.53926,1.35626,1327.71,-70.2391,132.757,1277.08,688.839,0,0,0.00120473,0.0001817,-0.33662,5.14151,0.486651,5.19974,0,0
260,-0.242266,-2.49471,-3.54212,1.3618,1329.22,-73.9659,140.34,1279.38,692.44,0,0,0.00120473,0.0001817,-0.392319,5.83705,0.643435,5.90503,0,0
261,-0.247009,-2.49468,-3.54499,1.36734,1329.31,-78.0027,148.455,1281.76,695.85,0,0,0.00120473,0.0001817,-0.449969,6.55698,0.813866,6.63611,0,0
262,-0.249184,-2.49471,-3.54851,1.37148,1329.48,-77.278,143.48,1282.04,692.788,0,0,0.00120473,0.0001817,-0.451905,6.48999,0.815172,6.57146,0,0
263,-0.25136,-2.49473,-3.55203,1.37562,1329.65,-76.5707,138.545,1282.35,689.739,0,0,0.00120473,0.0001817,-0.453641,6.42329,0.815957,6.507,0,0
264,-0.253535,-2.49475,-3.55555,1.37976,1329.82,-75.8797,133.648,1282.67,686.704,0,0,0.00120473,0.0001817,-0.455181,6.35691,0.816232,6.44276,0,0
265,-0.255711,-2.49478,-3.55907,1.3839,1329.99,-75.2053,128.791,1283.02,683.682,0,0,0.00120473,0.0001817,-0.456525,6.29082,0.815996,6.37873,0,0
266,-0.257886,-2.4948,-3.56259,1.38804,1330.16,-74.5477,123.973,1283.38,680.673,0,0,0.00120473,0.0001817,-0.457671,6.225,0.815241,6.31487,0,0
267,-0.260061,-2.49482,-3.56612,1.39218,1330.34,-73.906,119.192,1283.76,677.677,0,0,0.00120473,0.0001817,-0.458625,6.15948,0.813982,6.25122,0,0
268,-0.262237,-2.49485,-3.56964,1.39632,1330.51,-73.2804,114.449,1284.16,674.695,0,0,0.00120473,0.0001817,-0.459387,6.09425,0.812217,6.18777,0,0
269,-0.264412,-2.49487,-3.57316,1.40046,1330.69,-72.6707,109.744,1284.58,671.726,0,0,0.00120473,0.0001817,-0.459956,6.02928,0.809944,6.12448,0,0
270,-0.266588,-2.4949,-3.57668,1.4046,1330.87,-72.0771,105.076,1285.02,668.769,0,0,0.00120473,0.0001817,-0.460333,5.96456,0.807161,6.06136,0,0
271,-0.268763,-2.49492,-3.5802,1.40874,1331.05,-71.499,100.446,1285.47,665.826,0,0,0.00120473,0.0001817,-0.460524,5.90015,0.803889,5.99846,0,0
272,-0.270938,-2.49494,-3.58372,1.41288,1331.24,-70.9361,95.8511,1285.95,662.896,0,0,0.00120473,0.0001817,-0.460524,5.83596,0.800105,5.93569,0,0
273,-0.273114,-2.49497,-3.58725,1.41702,1331.43,-70.389,91.293,1286.44,659.977,0,0,0.00120473,0.0001817,-0.460334,5.77201,0.795817,5.87306,0,0
274,-0.275289,-2.49499,-3.59077,1.42116,1331.62,-69.8566,86.7702,1286.95,657.072,0,0,0.00120473,0.0001817,-0.459959,5.70831,0.791034,5.81061,0,0
275,-0.277465,-2.49501,-3.59429,1.4253,1331.81,-69.3392,82.2831,1287.47,654.18,0,0,0.00120473,0.0001817,-0.459399,5.64486,0.785756,5.74831,0,0
276,-0.27964,-2.49504,-3.59781,1.42944,1332.01,-68.8366,77.831,1288.01,651.301,0,0,0.00120473,0.0001817,-0.458654,5.58164,0.77998,5.68615,0,0
277,-0.281815,-2.49506,-3.60133,1.43358,1332.21,-68.3492,73.4142,1288.58,648.433,0,0,0.00120473,0.0001817,-0.457723,5.51862,0.773704,5.62411,0,0
278,-0.283991,-2.49509,-3.60485,1.43772,1332.42,-67.8759,69.0317,1289.15,645.578,0,0,0.00120473,0.0001817,-0.456612,5.45586,0.766944,5.56223,0,0
279,-0.286166,-2.49511,-3.60838,1.44185,1332.62,-67.4171,64.6833,1289.75,642.736,0,0,0.00120473,0.0001817,-0.455319,5.39331,0.759691,5.50048,0,0
280,-0.288342,-2.49513,-3.6119,1.44599,1332.84,-66.9729,60.3694,1290.36,639.906,0,0,0.00120473,0.0001817,-0.453843,5.33096,0.751943,5.43885,0,0
281,-0.290517,-2.49516,-3.61542,1.45013,1333.05,-66.5425,56.0885,1290.99,637.088,0,0,0.00120473,0.0001817,-0.45219,5.26883,0.743713,5.37736,0,0
282,-0.290706,-2.49526,-3.62121,1.45593,1331.78,-62.9952,40.6494,1292.01,627.116,0,0,0.00120473,0.0001817,-0.364064,4.35188,0.492049,4.44137,0,0
283,-0.290894,-2.49535,-3.627,1.46172,1328.17,-62.4601,28.9353,1292.17,609.257,0,0,0.00120473,0.0001817,-0.262028,3.40966,0.226752,3.47967,0,0
284,-0.291083,-2.49545,-3.63279,1.46752,1321.43,-64.1469,20.4455,1290.48,584.458,0,0,0.00120473,0.0001817,-0.14027,2.46162,-0.0443149,2.50998,0,0
285,-0.291271,-2.49555,-3.63858,1.47331,1318.96,-65.5668,13.086,1289.7,562.027,0,0,0.00120473,0.0001817,-0.0736712,2.02064,-0.13612,2.06002,0,0
286,-0.29146,-2.49565,-3.64437,1.47911,1318.85,-66.8948,6.60406,1289.13,541.238,0,0,0.00120473,0.0001817,-0.0507481,1.88927,-0.118626,1.92865,0,0
287,-0.291648,-2.49575,-3.65017,1.4849,1316.66,-68.24,0.914889,1287.67,521.207,0,0,0.00120473,0.0001817,-0.0316931,1.77047,-0.101581,1.80922,0,0
288,-0.291837,-2.49584,-3.65596,1.4907,1315.61,-68.6204,-3.51416,1287.94,507.093,0,0,0.00120473,0.0001817,-0.0220909,1.70127,-0.0903305,1.73907,0,0
289,-0.292026,-2.49594,-3.66175,1.49649,1317.53,-67.9614,-7.04391,1290.9,499.116,0,0,0.00120473,0.0001817,-0.0200089,1.6779,-0.0854838,1.71493,0,0
290,-0.292214,-2.49604,-3.66754,1.50229,1319.43,-67.3603,-10.3858,1293.89,491.366,0,0,0.00120473,0.0001817,-0.018189,1.6556,-0.0809675,1.69182,0,0
291,-0.292403,-2.49614,-3.67333,1.50808,1321.31,-66.8163,-13.5435,1296.9,483.838,0,0,0.00120473,0.0001817,-0.0166227,1.63431,-0.0767755,1.66971,0,0
292,-0.292591,-2.49624,-3.67912,1.51388,1323.17,-66.3278,-16.5213,1299.95,476.532,0,0,0.00120473,0.0001817,-0.0153008,1.614,-0.0728997,1.64856,0,0
293,-0.29278,-2.49633,-3.68491,1.51967,1325.02,-65.8934,-19.3235,1303.02,469.442,0,0,0.00120473,0.0001817,-0.0142144,1.59464,-0.0693312,1.62834,0,0
294,-0.292969,-2.49643,-3.6907,1.52547,1326.85,-65.5124,-21.9535,1306.13,462.567,0,0,0.00120473,0.0001817,-0.0133558,1.57618,-0.0660647,1.60901,0,0
295,-0.293157,-2.49653,-3.69649,1.53126,1328.68,-65.1833,-24.4151,1309.26,455.905,0,0,0.00120473,0.0001817,-0.0127165,1.55859,-0.0630924,1.59053,0,0
296,-0.293346,-2.49663,-3.70228,1.53706,1330.5,-64.9048,-26.7126,1312.43,449.452,0,0,0.00120473,0.0001817,-0.0122884,1.54183,-0.0604062,1.57288,0,0
297,-0.293534,-2.49673,-3.70807,1.54285,1332.32,-64.6762,-28.8488,1315.63,443.206,0,0,0.00120473,0.0001817,-0.0120646,1.52588,-0.0580013,1.55602,0,0
298,-0.293723,-2.49682,-3.71386,1.54865,1334.14,-64.4962,-30.8275,1318.86,437.164,0,0,0.00120473,0.0001817,-0.0120374,1.51069,-0.0558703,1.53992,0,0
299,-0.293912,-2.49692,-3.71966,1.55444,1335.97,-64.3637,-32.6522,1322.13,431.324,0,0,0.00120473,0.0001817,-0.0121997,1.49624,-0.0540069,1.52455,0,0
300,-0.2941,-2.49702,-3.72545,1.56023,1337.8,-64.2775,-34.3264,1325.42,425.683,0,0,0.00120473,0.0001817,-0.0125444,1.4825,-0.052404,1.50988,0,0
301,-0.294289,-2.49712,-3.73124,1.56603,1339.64,-64.2371,-35.8528,1328.76,420.239,0,0,0.00120473,0.0001817,-0.0130652,1.46944,-0.0510571,1.49589,0,0
302,-0.293232,-2.49726,-3.73814,1.57301,1341.12,-64.3569,-37.1035,1332.55,413.888,0,0,0.00120473,0.0001817,-0.0141792,1.45043,-0.0492263,1.4753,0,0
303,-0.292176,-2.4974,-3.74504,1.57999,1339.89,-65.1624,-36.0901,1331.69,405.285,0,0,0.00120473,0.0001817,-0.0166298,1.45475,-0.0533633,1.4786,0,0
304,-0.29112,-2.49754,-3.75193,1.58697,1333.2,-67.2856,-32.1468,1325.53,393.472,0,0,0.00120473,0.0001817,-0.0200127,1.45496,-0.0610901,1.47721,0,0
305,-0.290064,-2.49767,-3.75883,1.59395,1326.51,-69.4087,-28.2038,1319.37,381.659,0,0,0.00120473,0.0001817,-0.0233954,1.45518,-0.0688157,1.47582,0,0
306,-0.289008,-2.49781,-3.76573,1.60093,1319.81,-71.5319,-24.2607,1313.21,369.846,0,0,0.00120473,0.0001817,-0.0267782,1.45539,-0.0765416,1.47443,0,0
307,-0.287952,-2.49795,-3.77263,1.60791,1313.12,-73.6552,-20.3174,1307.05,358.034,0,0,0.00120473,0.0001817,-0.0301611,1.45561,-0.0842684,1.47305,0,0
308,-0.286895,-2.49809,-3.77953,1.61489,1312.21,-73.4588,-21.1482,1306.16,351.78,0,0,0.00120473,0.0001817,-0.030778,1.45997,-0.0803394,1.47694,0,0
309,-0.285839,-2.49823,-3.78643,1.62188,1312.02,-72.9686,-22.5835,1305.93,346.23,0,0,0.00120473,0.0001817,-0.0310445,1.46485,-0.074934,1.4815,0,0
310,-0.284783,-2.49837,-3.79333,1.62886,1311.84,-72.4785,-24.0187,1305.71,340.68,0,0,0.00120473,0.0001817,-0.0313111,1.46974,-0.0695287,1.48606,0,0
311,-0.283727,-2.49851,-3.80023,1.63584,1313.21,-71.7528,-25.6077,1307.07,334.188,0,0,0.00120473,0.0001817,-0.0320928,1.47389,-0.0667368,1.48999,0,0
312,-0.282671,-2.49865,-3.80713,1.64282,1316.41,-70.7493,-27.378,1310.31,326.585,0,0,0.00120473,0.0001817,-0.0334814,1.47716,-0.067025,1.49317,0,0
313,-0.281614,-2.49879,-3.81403,1.6498,1319.6,-69.7458,-29.1483,1313.54,318.983,0,0,0.00120473,0.0001817,-0.0348699,1.48043,-0.0673123,1.49634,0,0
314,-0.280558,-2.49893,-3.82092,1.65678,1322.8,-68.7422,-30.9187,1316.77,311.38,0,0,0.00120473,0.0001817,-0.0362585,1.48371,-0.0675997,1.49952,0,0
315,-0.279502,-2.49907,-3.82782,1.66376,1326,-67.7387,-32.6889,1320.01,303.777,0,0,0.00120473,0.0001817,-0.037647,1.48698,-0.0678878,1.5027,0,0
316,-0.278446,-2.49921,-3.83472,1.67074,1329.2,-66.7353,-34.4592,1323.24,296.174,0,0,0.00120473,0.0001817,-0.0390357,1.49026,-0.0681759,1.50588,0,0
317,-0.27739,-2.49934,-3.84162,1.67772,1332.4,-65.7317,-36.2296,1326.47,288.571,0,0,0.00120473,0.0001817,-0.0404242,1.49353,-0.0684633,1.50906,0,0
318,-0.276333,-2.49948,-3.84852,1.6847,1335.59,-64.7281,-37.9999,1329.71,280.969,0,0,0.00120473,0.0001817,-0.0418127,1.49681,-0.0687506,1.51223,0,0
319,-0.275277,-2.49962,-3.85542,1.69168,1338.79,-63.7247,-39.7702,1332.94,273.366,0,0,0.00120473,0.0001817,-0.0432014,1.50008,-0.0690388,1.51541,0,0
320,-0.274221,-2.49976,-3.86232,1.69866,1347.09,-62.3896,-39.6026,1335.3,266.074,0,0,0.00120473,0.0001817,-0.0452622,1.49727,-0.0710067,1.5125,0,0
321,-0.273165,-2.4999,-3.86922,1.70565,1378.75,-59.5355,-30.5603,1333.66,260.207,0,0,0.00120473,0.0001817,-0.0504012,1.46663,-0.080667,1.48168,0,0
322,-0.270084,-2.50003,-3.87362,1.71102,1398.37,-57.5685,-24.4954,1331.49,257.654,0,0,0.00120473,0.0001817,-0.0536895,1.4491,-0.0836398,1.46365,0,0
323,-0.267003,-2.50016,-3.87802,1.71639,1418,-55.6014,-18.4302,1329.33,255.102,0,0,0.00120473,0.0001817,-0.0569779,1.43156,-0.086613,1.44561,0,0
324,-0.263923,-2.50029,-3.88242,1.72176,1437.62,-53.6346,-12.3655,1327.17,252.549,0,0,0.00120473,0.0001817,-0.0602662,1.41403,-0.0895864,1.42757,0,0
325,-0.260842,-2.50042,-3.88682,1.72714,1457.24,-51.6675,-6.30034,1325,249.997,0,0,0.00120473,0.0001817,-0.0635546,1.3965,-0.0925596,1.40954,0,0
326,-0.257761,-2.50055,-3.89122,1.73251,1467.19,-49.6107,-0.990201,1320.42,247.348,0,0,0.00120473,0.0001817,-0.0665167,1.38631,-0.0929837,1.39901,0,0
327,-0.254681,-2.50068,-3.89562,1.73788,1453.94,-47.3384,2.51058,1310.05,244.469,0,0,0.00120473,0.0001817,-0.0686969,1.39375,-0.0872979,1.40648,0,0
328,-0.2516,-2.50082,-3.90002,1.74326,1440.68,-45.0659,6.01154,1299.67,241.589,0,0,0.00120473,0.0001817,-0.0708772,1.40118,-0.081612,1.41395,0,0
329,-0.248519,-2.50095,-3.90442,1.74863,1427.43,-42.7938,9.51216,1289.3,238.71,0,0,0.00120473,0.0001817,-0.0730574,1.40862,-0.0759267,1.42142,0,0
330,-0.245439,-2.50108,-3.90882,1.754,1414.18,-40.5214,13.0131,1278.93,235.83,0,0,0.00120473,0.0001817,-0.0752377,1.41605,-0.0702408,1.42889,0,0
331,-0.242358,-2.50121,-3.91322,1.75938,1400.93,-38.249,16.5139,1268.55,232.951,0,0,0.00120473,0.0001817,-0.0774179,1.42348,-0.0645549,1.43636,0,0
332,-0.239277,-2.50134,-3.91762,1.76475,1397.38,-37.1339,17.5677,1266.05,229.632,0,0,0.00120473,0.0001817,-0.0784486,1.42625,-0.0575451,1.4387,0,0
333,-0.236197,-2.50147,-3.92202,1.77012,1398.98,-36.6331,17.3223,1267.74,226.08,0,0,0.00120473,0.0001817,-0.0788689,1.42653,-0.0498322,1.43831,0,0
334,-0.233116,-2.5016,-3.92642,1.7755,1400.59,-36.1325,17.0766,1269.43,222.529,0,0,0.00120473,0.0001817,-0.0792891,1.42682,-0.0421198,1.43791,0,0
335,-0.230035,-2.50173,-3.93082,1.78087,1402.2,-35.6317,16.8313,1271.11,218.977,0,0,0.00120473,0.0001817,-0.0797094,1.4271,-0.0344069,1.43752,0,0
336,-0.226955,-2.50186,-3.93522,1.78624,1403.8,-35.131,16.5858,1272.79,215.425,0,0,0.00120473,0.0001817,-0.0801297,1.42739,-0.0266941,1.43713,0,0
337,-0.223874,-2.50199,-3.93962,1.79162,1405.41,-34.6302,16.3404,1274.48,211.873,0,0,0.00120473,0.0001817,-0.08055,1.42767,-0.0189813,1.43674,0,0
338,-0.220793,-2.50212,-3.94402,1.79699,1407.01,-34.1294,16.0951,1276.16,208.321,0,0,0.00120473,0.0001817,-0.0809703,1.42796,-0.0112684,1.43635,0,0
339,-0.217713,-2.50225,-3.94842,1.80236,1408.62,-33.6289,15.8494,1277.85,204.77,0,0,0.00120473,0.0001817,-0.0813905,1.42824,-0.00355611,1.43596,0,0
340,-0.214632,-2.50238,-3.95282,1.80773,1410.22,-33.1281,15.604,1279.53,201.218,0,0,0.00120473,0.0001817,-0.0818109,1.42853,0.0041568,1.43557,0,0
341,-0.211551,-2.50251,-3.95723,1.81311,1411.83,-32.6273,15.3586,1281.21,197.666,0,0,0.00120473,0.0001817,-0.0822311,1.42881,0.0118696,1.43517,0,0
342,-0.203143,-2.50269,-3.95905,1.82171,1406.13,-33.2867,13.0628,1284.76,198.781,0,0,0.00120473,0.0001817,-0.0815871,1.4441,0.0241695,1.44915,0,0
343,-0.194734,-2.50287,-3.96087,1.83032,1393.56,-35.7285,8.93678,1297.46,198.21,0,0,0.00120473,0.0001817,-0.0819001,1.47648,0.0242859,1.48123,0,0
344,-0.186325,-2.50305,-3.9627,1.83893,1380.99,-38.17,4.81104,1310.16,197.639,0,0,0.00120473,0.0001817,-0.0822132,1.50887,0.0244027,1.51331,0,0
345,-0.177916,-2.50323,-3.96452,1.84753,1368.42,-40.6118,0.685026,1322.87,197.069,0,0,0.00120473,0.0001817,-0.0825262,1.54125,0.0245192,1.54539,0,0
346,-0.169507,-2.5034,-3.96635,1.85614,1355.85,-43.0534,-3.44071,1335.57,196.498,0,0,0.00120473,0.0001817,-0.0828394,1.57364,0.024636,1.57747,0,0
347,-0.161098,-2.50358,-3.96817,1.86475,1346.05,-44.7102,-6.65779,1344.26,196.616,0,0,0.00120473,0.0001817,-0.0817064,1.59253,0.0242834,1.5961,0,0
348,-0.152689,-2.50376,-3.97,1.87335,1343.8,-44.2287,-7.39891,1342.01,198.611,0,0,0.00120473,0.0001817,-0.0766349,1.57465,0.0226534,1.57811,0,0
349,-0.14428,-2.50394,-3.97182,1.88196,1341.55,-43.7473,-8.14021,1339.77,200.605,0,0,0.00120473,0.0001817,-0.0715633,1.55678,0.0210232,1.56012,0,0
350,-0.135871,-2.50412,-3.97364,1.89057,1339.29,-43.2657,-8.88133,1337.52,202.6,0,0,0.00120473,0.0001817,-0.0664917,1.53891,0.0193933,1.54213,0,0
351,-0.127462,-2.5043,-3.97547,1.89917,1337.04,-42.7842,-9.62244,1335.27,204.594,0,0,0.00120473,0.0001817,-0.0614203,1.52104,0.0177633,1.52414,0,0
352,-0.119053,-2.50447,-3.97729,1.90778,1334.79,-42.3028,-10.3637,1333.03,206.589,0,0,0.00120473,0.0001817,-0.0563486,1.50316,0.0161331,1.50615,0,0
353,-0.110644,-2.50465,-3.97912,1.91639,1332.81,-41.7512,-11.1199,1331.06,208.274,0,0,0.00120473,0.0001817,-0.0516096,1.48647,0.0143347,1.48936,0,0
354,-0.102235,-2.50483,-3.98094,1.92499,1333.04,-40.6386,-11.997,1331.33,207.487,0,0,0.00120473,0.0001817,-0.0495342,1.47927,0.0111869,1.48215,0,0
355,-0.093826,-2.50501,-3.98277,1.9336,1333.27,-39.5259,-12.8739,1331.59,206.699,0,0,0.00120473,0.0001817,-0.047459,1.47207,0.00803942,1.47494,0,0
356,-0.085417,-2.50519,-3.98459,1.9422,1333.5,-38.4133,-13.751,1331.85,205.911,0,0,0.00120473,0.0001817,-0.0453836,1.46486,0.00489161,1.46773,0,0
357,-0.077008,-2.50536,-3.98641,1.95081,1333.73,-37.3005,-14.6279,1332.11,205.123,0,0,0.00120473,0.0001817,-0.0433084,1.45766,0.00174414,1.46052,0,0
358,-0.0685991,-2.50554,-3.98824,1.95942,1332.99,-37.4768,-14.1238,1330.87,204.194,0,0,0.00120473,0.0001817,-0.0370586,1.43921,-0.0128945,1.44217,0,0
359,-0.0601901,-2.50572,-3.99006,1.96802,1331.18,-39.0734,-12.0971,1327.97,203.11,0,0,0.00120473,0.0001817,-0.0262081,1.40836,-0.0401976,1.41155,0,0
360,-0.0517811,-2.5059,-3.99189,1.97663,1329.38,-40.6702,-10.0709,1325.07,202.026,0,0,0.00120473,0.0001817,-0.0153577,1.37751,-0.0675001,1.38093,0,0
361,-0.0433722,-2.50608,-3.99371,1.98524,1324.07,-42.4387,-7.50511,1318.27,200.513,0,0,0.00120473,0.0001817,-0.00701908,1.35546,-0.0863811,1.35894,0,0
362,-0.0396391,-2.50613,-3.99305,1.98903,1317.87,-43.2217,-6.21113,1311.09,200.839,0,0,0.00120473,0.0001817,-0.0066334,1.35866,-0.0844831,1.36197,0,0
363,-0.035906,-2.50618,-3.99238,1.99282,1311.67,-44.0048,-4.91732,1303.93,201.164,0,0,0.00120473,0.0001817,-0.00624774,1.36186,-0.0825848,1.365,0,0
364,-0.0321729,-2.50624,-3.99172,1.99661,1305.47,-44.7878,-3.62334,1296.76,201.489,0,0,0.00120473,0.0001817,-0.00586207,1.36506,-0.0806868,1.36803,0,0
365,-0.0284398,-2.50629,-3.99105,2.00041,1299.26,-45.5709,-2.32936,1289.59,201.814,0,0,0.00120473,0.0001817,-0.00547639,1.36826,-0.0787887,1.37106,0,0
366,-0.0247067,-2.50634,-3.99039,2.0042,1293.06,-46.354,-1.03555,1282.42,202.14,0,0,0.00120473,0.0001817,-0.00509073,1.37146,-0.0768905,1.37409,0,0
367,-0.0209736,-2.5064,-3.98972,2.00799,1286.86,-47.137,0.258433,1275.25,202.465,0,0,0.00120473,0.0001817,-0.00470506,1.37466,-0.0749924,1.37712,0,0
368,-0.0172405,-2.50645,-3.98906,2.01178,1280.66,-47.9201,1.55242,1268.08,202.79,0,0,0.00120473,0.0001817,-0.00431938,1.37786,-0.0730944,1.38015,0,0
369,-0.0135074,-2.5065,-3.98839,2.01557,1274.46,-48.7032,2.84615,1260.91,203.115,0,0,0.00120473,0.0001817,-0.00393376,1.38106,-0.0711961,1.38318,0,0
370,-0.0097743,-2.50656,-3.98773,2.01937,1268.26,-49.4862,4.1402,1253.74,203.441,0,0,0.00120473,0.0001817,-0.00354804,1.38426,-0.0692981,1.38621,0,0
371,-0.0060412,-2.50661,-3.98706,2.02316,1264.21,-49.564,4.73801,1249.2,204.092,0,0,0.00120473,0.0001817,-0.00309166,1.39092,-0.0675392,1.39276,0,0
372,-0.00230811,-2.50666,-3.9864,2.02695,1262.64,-48.8382,4.54234,1247.68,205.116,0,0,0.00120473,0.0001817,-0.00255476,1.40151,-0.0659386,1.40332,0,0
373,0.00142499,-2.50672,-3.98573,2.03074,1261.06,-48.1124,4.34709,1246.14,206.14,0,0,0.00120473,0.0001817,-0.00201778,1.41209,-0.0643382,1.41387,0,0
374,0.00515808,-2.50677,-3.98507,2.03454,1259.49,-47.3867,4.15142,1244.62,207.164,0,0,0.00120473,0.0001817,-0.00148089,1.42268,-0.0627376,1.42443,0,0
375,0.00889118,-2.50682,-3.9844,2.03833,1257.91,-46.6609,3.95612,1243.08,208.188,0,0,0.00120473,0.0001817,-0.000943948,1.43327,-0.0611372,1.43498,0,0
376,0.0126243,-2.50688,-3.98374,2.04212,1256.33,-45.9352,3.76082,1241.55,209.211,0,0,0.00120473,0.0001817,-0.00040701,1.44386,-0.0595368,1.44554,0,0
377,0.0163574,-2.50693,-3.98307,2.04591,1254.76,-45.2094,3.56521,1240.02,210.235,0,0,0.00120473,0.0001817,0.000129927,1.45445,-0.0579361,1.45609,0,0
378,0.0200905,-2.50698,-3.98241,2.0497,1253.18,-44.4837,3.36991,1238.49,211.259,0,0,0.00120473,0.0001817,0.000666865,1.46504,-0.0563357,1.46665,0,0
379,0.0238236,-2.50704,-3.98174,2.0535,1251.6,-43.7579,3.17461,1236.96,212.283,0,0,0.00120473,0.0001817,0.0012038,1.47562,-0.0547353,1.4772,0,0
380,0.0275567,-2.50709,-3.98108,2.05729,1250.02,-43.0322,2.97899,1235.43,213.306,0,0,0.00120473,0.0001817,0.00174074,1.48621,-0.0531347,1.48776,0,0
381,0.0312898,-2.50714,-3.98041,2.06108,1248.45,-42.3064,2.78369,1233.9,214.33,0,0,0.00120473,0.0001817,0.00227768,1.4968,-0.0515343,1.49831,0,0
382,0.036769,-2.50718,-3.97681,2.06764,1246.29,-41.0641,1.79518,1232.04,218.445,0,0,0.00120473,0.0001817,0.00262732,1.51526,-0.0492345,1.51672,0,0
383,0.0422483,-2.50721,-3.97322,2.07419,1244.14,-39.8217,0.806299,1230.19,222.559,0,0,0.00120473,0.0001817,0.00297693,1.53373,-0.0469344,1.53513,0,0
384,0.0477275,-2.50724,-3.96962,2.08075,1240.66,-38.3889,0.0216561,1227.04,225.886,0,0,0.00120473,0.0001817,0.0032804,1.54927,-0.0448917,1.55062,0,0
385,0.0532068,-2.50727,-3.96602,2.0873,1234.39,-36.5527,-0.331473,1221.13,227.544,0,0,0.00120473,0.0001817,0.00348615,1.55862,-0.0433933,1.55991,0,0
386,0.0586861,-2.50731,-3.96242,2.09386,1228.12,-34.7164,-0.684969,1215.22,229.203,0,0,0.00120473,0.0001817,0.00369186,1.56797,-0.0418947,1.56921,0,0
387,0.0641653,-2.50734,-3.95882,2.10041,1221.84,-32.8802,-1.03815,1209.31,230.862,0,0,0.00120473,0.0001817,0.00389757,1.57732,-0.0403964,1.57851,0,0
388,0.0696446,-2.50737,-3.95522,2.10697,1215.57,-31.044,-1.39128,1203.41,232.521,0,0,0.00120473,0.0001817,0.00410331,1.58667,-0.038898,1.5878,0,0
389,0.0751239,-2.5074,-3.95162,2.11353,1209.3,-29.2078,-1.7444,1197.5,234.18,0,0,0.00120473,0.0001817,0.00430906,1.59602,-0.0373996,1.5971,0,0
390,0.0806031,-2.50744,-3.94802,2.12008,1203.03,-27.3716,-2.0979,1191.59,235.839,0,0,0.00120473,0.0001817,0.00451477,1.60538,-0.035901,1.6064,0,0
391,0.0860824,-2.50747,-3.94442,2.12664,1196.75,-25.5354,-2.45103,1185.68,237.497,0,0,0.00120473,0.0001817,0.00472052,1.61473,-0.0344026,1.61569,0,0
392,0.0915616,-2.5075,-3.94082,2.13319,1190.48,-23.6992,-2.80416,1179.78,239.156,0,0,0.00120473,0.0001817,0.00492627,1.62408,-0.0329042,1.62499,0,0
393,0.0970409,-2.50753,-3.93723,2.13975,1184.21,-21.8629,-3.15766,1173.87,240.815,0,0,0.00120473,0.0001817,0.00513198,1.63343,-0.0314056,1.63429,0,0
394,0.10252,-2.50756,-3.93363,2.1463,1177.94,-20.0267,-3.51079,1167.96,242.474,0,0,0.00120473,0.0001817,0.00533773,1.64278,-0.0299072,1.64358,0,0
395,0.107999,-2.5076,-3.93003,2.15286,1171.67,-18.1905,-3.86392,1162.05,244.132,0,0,0.00120473,0.0001817,0.00554347,1.65213,-0.0284088,1.65288,0,0
396,0.113479,-2.50763,-3.92643,2.15941,1165.39,-16.3543,-4.21709,1156.15,245.791,0,0,0.00120473,0.0001817,0.00574918,1.66148,-0.0269105,1.66218,0,0
397,0.118958,-2.50766,-3.92283,2.16597,1159.12,-14.5181,-4.57059,1150.24,247.45,0,0,0.00120473,0.0001817,0.00595489,1.67084,-0.0254119,1.67147,0,0
398,0.124437,-2.50769,-3.91923,2.17253,1156.05,-13.0311,-4.42371,1147.3,249.599,0,0,0.00120473,0.0001817,0.00622965,1.66673,-0.0221641,1.66748,0,0
399,0.129916,-2.50773,-3.91563,2.17908,1154.24,-11.6831,-4.07807,1145.54,251.944,0,0,0.00120473,0.0001817,0.00653184,1.65727,-0.0182208,1.65821,0,0
400,0.135396,-2.50776,-3.91203,2.18564,1152.44,-10.3349,-3.7328,1143.78,254.288,0,0,0.00120473,0.0001817,0.00683399,1.64781,-0.0142774,1.64894,0,0
401,0.140875,-2.50779,-3.90843,2.19219,1150.63,-8.98684,-3.38716,1142.02,256.632,0,0,0.00120473,0.0001817,0.00713618,1.63835,-0.0103342,1.63967,0,0
402,0.143822,-2.50779,-3.90549,2.19636,1146.98,-8.49992,-3.71104,1137.7,258.471,0,0,0.00120473,0.0001817,0.00688544,1.63919,-0.0104795,1.64051,0,0
403,0.146768,-2.50779,-3.90254,2.20052,1141.77,-8.33687,-4.19479,1131.18,260.164,0,0,0.00120473,0.0001817,0.00645537,1.64258,-0.0121526,1.64383,0,0
404,0.149715,-2.50779,-3.8996,2.20469,1136.57,-8.17378,-4.67861,1124.65,261.858,0,0,0.00120473,0.0001817,0.00602526,1.64598,-0.0138258,1.64716,0,0
405,0.152662,-2.50779,-3.89666,2.20886,1131.36,-8.01069,-5.16243,1118.12,263.551,0,0,0.00120473,0.0001817,0.00559514,1.64937,-0.015499,1.65049,0,0
406,0.155608,-2.50779,-3.89371,2.21302,1126.16,-7.84753,-5.64653,1111.6,265.244,0,0,0.00120473,0.0001817,0.00516506,1.65277,-0.0171716,1.65382,0,0
407,0.158555,-2.50779,-3.89077,2.21719,1120.96,-7.68444,-6.13035,1105.07,266.937,0,0,0.00120473,0.0001817,0.00473495,1.65616,-0.0188448,1.65715,0,0
408,0.161502,-2.50779,-3.88782,2.22135,1115.75,-7.52135,-6.61417,1098.54,268.63,0,0,0.00120473,0.0001817,0.00430484,1.65955,-0.020518,1.66048,0,0
409,0.164448,-2.50779,-3.88488,2.22552,1112.38,-7.03953,-6.18661,1094.53,269.762,0,0,0.00120473,0.0001817,0.00406226,1.66536,-0.0190097,1.66647,0,0
410,0.167395,-2.50779,-3.88193,2.22968,1111.96,-5.82963,-6.24951,1093.56,270.743,0,0,0.00120473,0.0001817,0.00396094,1.67008,-0.0174455,1.67152,0,0
411,0.170342,-2.50779,-3.87899,2.23385,1115.28,-3.59433,-7.84438,1095.99,271.884,0,0,0.00120473,0.0001817,0.00396455,1.67112,-0.0181606,1.67294,0,0
412,0.173288,-2.50779,-3.87604,2.23802,1118.6,-1.35903,-9.43925,1098.43,273.025,0,0,0.00120473,0.0001817,0.00396817,1.67216,-0.0188757,1.67436,0,0
413,0.176235,-2.50779,-3.8731,2.24218,1121.92,0.876136,-11.034,1100.86,274.165,0,0,0.00120473,0.0001817,0.00397181,1.6732,-0.0195907,1.67579,0,0
414,0.179181,-2.50779,-3.87015,2.24635,1125.23,3.11144,-12.6288,1103.29,275.306,0,0,0.00120473,0.0001817,0.00397543,1.67424,-0.0203058,1.67721,0,0
415,0.182128,-2.50779,-3.86721,2.25051,1127.59,4.6415,-13.0385,1104.78,276.633,0,0,0.00120473,0.0001817,0.00400337,1.66922,-0.0191142,1.6727,0,0
416,0.185075,-2.50779,-3.86426,2.25468,1128.8,5.31978,-12.0166,1105.14,278.185,0,0,0.00120473,0.0001817,0.00406069,1.65689,-0.0156195,1.66103,0,0
417,0.188021,-2.50779,-3.86132,2.25884,1130,5.99804,-10.9949,1105.5,279.736,0,0,0.00120473,0.0001817,0.00411803,1.64456,-0.0121242,1.64936,0,0
418,0.190968,-2.50779,-3.85838,2.26301,1131.21,6.67632,-9.97302,1105.86,281.288,0,0,0.00120473,0.0001817,0.00417535,1.63222,-0.00862949,1.63769,0,0
419,0.193915,-2.50779,-3.85543,2.26718,1132.41,7.35459,-8.95113,1106.21,282.839,0,0,0.00120473,0.0001817,0.00423267,1.61989,-0.0051348,1.62601,0,0
420,0.196861,-2.50779,-3.85249,2.27134,1133.61,8.03284,-7.92927,1106.57,284.391,0,0,0.00120473,0.0001817,0.00429002,1.60756,-0.00164024,1.61434,0,0
421,0.199808,-2.50779,-3.84954,2.27551,1135.19,8.75999,-7.35667,1107.8,286.057,0,0,0.00120473,0.0001817,0.00406789,1.5964,0.00174869,1.60378,0,0
422,0.200597,-2.50773,-3.84574,2.27939,1138.35,9.53824,-9.70039,1114.36,289.718,0,0,0.00120473,0.0001817,0.00193738,1.59482,0.00385058,1.60231,0,0
423,0.201387,-2.50768,-3.84194,2.28327,1141.52,10.3164,-12.0439,1120.93,293.38,0,0,0.00120473,0.0001817,-0.000192864,1.59325,0.0059532,1.60083,0,0
424,0.202176,-2.50763,-3.83814,2.28716,1144.69,11.0947,-14.3876,1127.5,297.042,0,0,0.00120473,0.0001817,-0.00232337,1.59167,0.00805509,1.59936,0,0
425,0.202966,-2.50757,-3.83434,2.29104,1147.85,11.8729,-16.7313,1134.06,300.704,0,0,0.00120473,0.0001817,-0.00445388,1.5901,0.010157,1.59789,0,0
426,0.203755,-2.50752,-3.83053,2.29492,1151.02,12.6511,-19.0749,1140.63,304.366,0,0,0.00120473,0.0001817,-0.00658413,1.58852,0.0122596,1.59641,0,0
427,0.204545,-2.50747,-3.82673,2.29881,1154.19,13.4294,-21.4186,1147.2,308.028,0,0,0.00120473,0.0001817,-0.00871463,1.58695,0.0143615,1.59494,0,0
428,0.205334,-2.50742,-3.82293,2.30269,1157.36,14.2076,-23.7623,1153.77,311.689,0,0,0.00120473,0.0001817,-0.0108451,1.58537,0.0164634,1.59346,0,0
429,0.206124,-2.50736,-3.81913,2.30657,1158.43,14.7753,-23.7913,1155.58,314.956,0,0,0.00120473,0.0001817,-0.0117534,1.58139,0.0191725,1.58961,0,0
430,0.206913,-2.50731,-3.81533,2.31045,1158.93,15.2852,-23.1863,1156.09,318.116,0,0,0.00120473,0.0001817,-0.0123271,1.57674,0.022047,1.58512,0,0
431,0.207703,-2.50726,-3.81153,2.31434,1159.43,15.7951,-22.5812,1156.6,321.275,0,0,0.00120473,0.0001817,-0.0129006,1.57209,0.0249224,1.58062,0,0
432,0.208492,-2.50721,-3.80772,2.31822,1159.93,16.305,-21.9763,1157.11,324.434,0,0,0.00120473,0.0001817,-0.0134743,1.56744,0.0277969,1.57612,0,0
433,0.209281,-2.50715,-3.80392,2.3221,1160.43,16.815,-21.3712,1157.62,327.593,0,0,0.00120473,0.0001817,-0.0140479,1.56279,0.0306714,1.57162,0,0
434,0.210071,-2.5071,-3.80012,2.32599,1160.93,17.3249,-20.7662,1158.13,330.752,0,0,0.00120473,0.0001817,-0.0146214,1.55815,0.0335467,1.56712,0,0
435,0.21086,-2.50705,-3.79632,2.32987,1161.43,17.8348,-20.1612,1158.64,333.911,0,0,0.00120473,0.0001817,-0.0151951,1.5535,0.0364213,1.56262,0,0
436,0.21165,-2.50699,-3.79252,2.33375,1161.93,18.3448,-19.5562,1159.15,337.07,0,0,0.00120473,0.0001817,-0.0157688,1.54885,0.0392958,1.55812,0,0
437,0.212439,-2.50694,-3.78872,2.33764,1162.43,18.8547,-18.9511,1159.66,340.229,0,0,0.00120473,0.0001817,-0.0163423,1.5442,0.0421711,1.55362,0,0
438,0.213229,-2.50689,-3.78492,2.34152,1162.93,19.3646,-18.3461,1160.17,343.388,0,0,0.00120473,0.0001817,-0.0169159,1.53955,0.0450457,1.54912,0,0
439,0.214018,-2.50684,-3.78111,2.3454,1163.42,19.8745,-17.7411,1160.68,346.547,0,0,0.00120473,0.0001817,-0.0174896,1.53491,0.0479202,1.54462,0,0
440,0.214808,-2.50678,-3.77731,2.34928,1163.93,20.3844,-17.1361,1161.19,349.706,0,0,0.00120473,0.0001817,-0.0180631,1.53026,0.0507955,1.54013,0,0
441,0.215597,-2.50673,-3.77351,2.35317,1164.42,20.8944,-16.531,1161.7,352.865,0,0,0.00120473,0.0001817,-0.0186368,1.52561,0.0536701,1.53563,0,0
442,0.214976,-2.50662,-3.76792,2.35879,1164.14,21.358,-15.5182,1161.5,358.005,0,0,0.00120473,0.0001817,-0.0194678,1.52308,0.0570422,1.53305,0,0
443,0.214354,-2.50651,-3.76233,2.36442,1163.85,21.8217,-14.5054,1161.29,363.144,0,0,0.00120473,0.0001817,-0.020299,1.52055,0.0604135,1.53047,0,0
444,0.213733,-2.5064,-3.75674,2.37004,1163.56,22.2853,-13.4925,1161.09,368.284,0,0,0.00120473,0.0001817,-0.02113,1.51803,0.0637856,1.5279,0,0
445,0.213111,-2.5063,-3.75115,2.37567,1163.27,22.749,-12.4796,1160.89,373.424,0,0,0.00120473,0.0001817,-0.021961,1.5155,0.0671577,1.52532,0,0
446,0.21249,-2.50619,-3.74557,2.38129,1162.98,23.2126,-11.4668,1160.69,378.563,0,0,0.00120473,0.0001817,-0.0227921,1.51297,0.0705289,1.52274,0,0
447,0.211868,-2.50608,-3.73998,2.38692,1162.7,23.6763,-10.454,1160.49,383.703,0,0,0.00120473,0.0001817,-0.0236231,1.51044,0.073901,1.52017,0,0
448,0.211247,-2.50597,-3.73439,2.39254,1162.41,24.1399,-9.44111,1160.29,388.842,0,0,0.00120473,0.0001817,-0.0244542,1.50792,0.0772732,1.51759,0,0
449,0.210625,-2.50586,-3.7288,2.39817,1162.12,24.6036,-8.42831,1160.08,393.982,0,0,0.00120473,0.0001817,-0.0252853,1.50539,0.0806444,1.51501,0,0
450,0.210004,-2.50575,-3.72321,2.40379,1161.83,25.0672,-7.41544,1159.88,399.122,0,0,0.00120473,0.0001817,-0.0261163,1.50286,0.0840165,1.51244,0,0
451,0.209383,-2.50564,-3.71762,2.40941,1158.1,25.6191,-6.06709,1156.15,404.059,0,0,0.00120473,0.0001817,-0.0271972,1.50227,0.085654,1.51196,0,0
452,0.208761,-2.50554,-3.71203,2.41504,1150.84,26.261,-4.37701,1148.83,408.791,0,0,0.00120473,0.0001817,-0.0285326,1.50367,0.0855234,1.51364,0,0
453,0.20814,-2.50543,-3.70644,2.42066,1143.59,26.9029,-2.68687,1141.5,413.522,0,0,0.00120473,0.0001817,-0.029868,1.50506,0.0853937,1.51531,0,0
454,0.207518,-2.50532,-3.70085,2.42629,1136.34,27.5448,-0.99678,1134.18,418.254,0,0,0.00120473,0.0001817,-0.0312034,1.50645,0.0852631,1.51699,0,0
455,0.206897,-2.50521,-3.69526,2.43191,1129.09,28.1867,0.693361,1126.86,422.985,0,0,0.00120473,0.0001817,-0.0325388,1.50784,0.0851334,1.51866,0,0
456,0.206275,-2.5051,-3.68967,2.43754,1127.89,28.3141,0.872342,1124.98,429.184,0,0,0.00120473,0.0001817,-0.0337096,1.5056,0.0864667,1.51678,0,0
457,0.205654,-2.50499,-3.68408,2.44316,1138.36,27.4486,-1.86568,1133.62,438.214,0,0,0.00120473,0.0001817,-0.034563,1.49637,0.0906233,1.50804,0,0
458,0.205032,-2.50488,-3.67849,2.44879,1148.82,26.5831,-4.6035,1142.27,447.244,0,0,0.00120473,0.0001817,-0.0354163,1.48713,0.0947806,1.4993,0,0
459,0.204411,-2.50477,-3.6729,2.45441,1159.29,25.7177,-7.34133,1150.91,456.274,0,0,0.00120473,0.0001817,-0.0362695,1.47789,0.0989379,1.49056,0,0
460,0.203789,-2.50467,-3.66732,2.46004,1158.45,25.4489,-6.92347,1149.17,460.805,0,0,0.00120473,0.0001817,-0.0372066,1.47314,0.0995993,1.48599,0,0
461,0.203168,-2.50456,-3.66173,2.46566,1153.91,25.3759,-5.47017,1144.04,463.86,0,0,0.00120473,0.0001817,-0.038171,1.46987,0.099115,1.48279,0,0
462,0.200229,-2.50441,-3.6565,2.47166,1146.43,25.0607,-3.16036,1136.4,466.115,0,0,0.00120473,0.0001817,-0.0389748,1.47299,0.0972128,1.48545,0,0
463,0.197289,-2.50427,-3.65127,2.47766,1138.96,24.7454,-0.850347,1128.76,468.37,0,0,0.00120473,0.0001817,-0.0397785,1.4761,0.0953112,1.48811,0,0
464,0.19435,-2.50413,-3.64604,2.48366,1131.48,24.4302,1.45946,1121.12,470.626,0,0,0.00120473,0.0001817,-0.0405823,1.47921,0.0934091,1.49076,0,0
465,0.19141,-2.50399,-3.64081,2.48966,1124,24.1149,3.76922,1113.49,472.881,0,0,0.00120473,0.0001817,-0.0413861,1.48232,0.0915069,1.49342,0,0
466,0.188471,-2.50384,-3.63558,2.49566,1116.52,23.7997,6.07928,1105.85,475.136,0,0,0.00120473,0.0001817,-0.0421899,1.48544,0.0896053,1.49608,0,0
467,0.185531,-2.5037,-3.63035,2.50166,1109.53,23.5351,8.70886,1098.96,479.054,0,0,0.00120473,0.0001817,-0.0425241,1.49055,0.0881494,1.50079,0,0
468,0.182592,-2.50356,-3.62513,2.50766,1104.53,23.4773,12.6435,1095.16,489.758,0,0,0.00120473,0.0001817,-0.0409425,1.50386,0.0885146,1.51388,0,0
469,0.179652,-2.50342,-3.6199,2.51366,1099.52,23.4194,16.5781,1091.35,500.461,0,0,0.00120473,0.0001817,-0.0393609,1.51716,0.0888798,1.52697,0,0
470,0.176713,-2.50327,-3.61467,2.51966,1094.52,23.3616,20.513,1087.54,511.164,0,0,0.00120473,0.0001817,-0.0377792,1.53047,0.0892455,1.54006,0,0
471,0.173774,-2.50313,-3.60944,2.52566,1089.52,23.3038,24.4477,1083.73,521.867,0,0,0.00120473,0.0001817,-0.0361976,1.54377,0.0896107,1.55315,0,0
472,0.170834,-2.50299,-3.60421,2.53166,1084.52,23.246,28.3822,1079.93,532.57,0,0,0.00120473,0.0001817,-0.034616,1.55708,0.0899759,1.56624,0,0
473,0.167895,-2.50285,-3.59898,2.53766,1079.52,23.1882,32.3171,1076.12,543.274,0,0,0.00120473,0.0001817,-0.0330344,1.57038,0.0903416,1.57933,0,0
474,0.164955,-2.5027,-3.59375,2.54366,1074.51,23.1304,36.2517,1072.31,553.977,0,0,0.00120473,0.0001817,-0.0314528,1.58369,0.0907068,1.59242,0,0
475,0.162016,-2.50256,-3.58853,2.54966,1069.62,22.9276,39.5961,1068.21,563.638,0,0,0.00120473,0.0001817,-0.0303539,1.59334,0.0897858,1.60188,0,0
476,0.159076,-2.50242,-3.5833,2.55566,1064.96,22.4263,41.7249,1063.49,571.153,0,0,0.00120473,0.0001817,-0.030249,1.59544,0.086216,1.60385,0,0
477,0.156137,-2.50228,-3.57807,2.56166,1060.31,21.925,43.8539,1058.78,578.667,0,0,0.00120473,0.0001817,-0.0301441,1.59755,0.0826465,1.60582,0,0
478,0.153198,-2.50213,-3.57284,2.56766,1055.65,21.4237,45.9826,1054.07,586.182,0,0,0.00120473,0.0001817,-0.0300393,1.59966,0.0790766,1.60779,0,0
479,0.150258,-2.50199,-3.56761,2.57366,1050.99,20.9224,48.1115,1049.35,593.697,0,0,0.00120473,0.0001817,-0.0299344,1.60177,0.0755068,1.60976,0,0
480,0.147319,-2.50185,-3.56238,2.57966,1046.33,20.4212,50.2404,1044.64,601.211,0,0,0.00120473,0.0001817,-0.0298296,1.60388,0.0719373,1.61172,0,0
481,0.144379,-2.5017,-3.55715,2.58566,1041.67,19.9199,52.3692,1039.92,608.726,0,0,0.00120473,0.0001817,-0.0297247,1.60599,0.0683675,1.61369,0,0
482,0.138913,-2.50156,-3.55448,2.59175,1036.18,18.8472,53.856,1034.41,613.636,0,0,0.00120473,0.0001817,-0.0296925,1.61009,0.0605345,1.61713,0,0
483,0.133446,-2.50142,-3.5518,2.59784,1030.7,17.7746,55.3429,1028.9,618.546,0,0,0.00120473,0.0001817,-0.0296603,1.61419,0.0527018,1.62056,0,0
484,0.12798,-2.50128,-3.54912,2.60393,1026.67,16.7538,56.8941,1024.83,619.5,0,0,0.00120473,0.0001817,-0.0300375,1.61352,0.0449282,1.61914,0,0
485,0.122513,-2.50114,-3.54645,2.61001,1024.79,15.8086,58.5396,1022.85,614.669,0,0,0.00120473,0.0001817,-0.0310135,1.60587,0.0372416,1.61064,0,0
486,0.117047,-2.50099,-3.54377,2.6161,1022.91,14.8635,60.1851,1020.88,609.839,0,0,0.00120473,0.0001817,-0.0319894,1.59823,0.0295548,1.60213,0,0
487,0.11158,-2.50085,-3.54109,2.62219,1021.03,13.9184,61.8305,1018.9,605.008,0,0,0.00120473,0.0001817,-0.0329654,1.59059,0.021868,1.59363,0,0
488,0.106114,-2.50071,-3.53842,2.62828,1019.15,12.9732,63.476,1016.93,600.177,0,0,0.00120473,0.0001817,-0.0339413,1.58295,0.0141815,1.58512,0,0
489,0.100647,-2.50057,-3.53574,2.63437,1017.26,12.0281,65.1214,1014.95,595.347,0,0,0.00120473,0.0001817,-0.0349173,1.57531,0.00649464,1.57662,0,0
490,0.0951809,-2.50043,-3.53306,2.64046,1016.21,13.1166,70.373,1013.11,601.112,0,0,0.00120473,0.0001817,-0.0376981,1.58695,0.00879358,1.58827,0,0
491,0.0897144,-2.50029,-3.53039,2.64654,1015.2,14.3317,75.8491,1011.26,607.537,0,0,0.00120473,0.0001817,-0.0405914,1.59979,0.0117142,1.60117,0,0
492,0.0842479,-2.50014,-3.52771,2.65263,1014.2,15.5468,81.3252,1009.42,613.963,0,0,0.00120473,0.0001817,-0.0434846,1.61264,0.0146348,1.61408,0,0
493,0.0787814,-2.5,-3.52503,2.65872,1013.2,16.7619,86.8015,1007.58,620.388,0,0,0.00120473,0.0001817,-0.0463779,1.62548,0.0175557,1.62698,0,0
494,0.0733149,-2.49986,-3.52236,2.66481,1012.19,17.977,92.2776,1005.73,626.813,0,0,0.00120473,0.0001817,-0.0492711,1.63832,0.0204763,1.63989,0,0
495,0.0678484,-2.49972,-3.51968,2.6709,1011.19,19.192,97.7537,1003.89,633.238,0,0,0.00120473,0.0001817,-0.0521644,1.65116,0.0233971,1.65279,0,0
496,0.0623819,-2.49958,-3.517,2.67699,1010.18,20.4072,103.23,1002.05,639.664,0,0,0.00120473,0.0001817,-0.0550576,1.66401,0.0263177,1.6657,0,0
497,0.0569154,-2.49943,-3.51432,2.68307,1009.18,21.6223,108.706,1000.21,646.089,0,0,0.00120473,0.0001817,-0.0579509,1.67685,0.0292384,1.6786,0,0
498,0.0514489,-2.49929,-3.51165,2.68916,1008.17,22.8374,114.182,998.365,652.514,0,0,0.00120473,0.0001817,-0.0608442,1.6897,0.0321592,1.69151,0,0
499,0.0459824,-2.49915,-3.50897,2.69525,1007.17,24.0525,119.658,996.522,658.94,0,0,0.00120473,0.0001817,-0.0637374,1.70254,0.0350798,1.70441,0,0
500,0.040516,-2.49901,-3.50629,2.70134,1005.41,24.2165,123.978,994.192,664.06,0,0,0.00120473,0.0001817,-0.0659746,1.71659,0.0368841,1.7185,0,0
501,0.0350495,-2.49887,-3.50362,2.70743,1002.51,22.8127,126.572,991.132,667.234,0,0,0.00120473,0.0001817,-0.0672331,1.73244,0.0370228,1.73437,0,0
502,0.0295592,-2.49877,-3.50342,2.71292,998.957,21.1541,128.079,987.514,671.546,0,0,0.00120473,0.0001817,-0.0680042,1.75404,0.0365424,1.75593,0,0
503,0.024069,-2.49867,-3.50323,2.71842,995.406,19.4955,129.586,983.896,675.857,0,0,0.00120473,0.0001817,-0.0687753,1.77564,0.0360621,1.7775,0,0
504,0.0185788,-2.49857,-3.50303,2.72391,994.361,17.5988,130.454,982.801,678.467,0,0,0.00120473,0.0001817,-0.0688122,1.78709,0.0329717,1.78894,0,0
505,0.0130886,-2.49847,-3.50284,2.72941,995.421,15.5021,130.785,983.825,679.647,0,0,0.00120473,0.0001817,-0.0682324,1.79003,0.0276889,1.79187,0,0
506,0.00759836,-2.49837,-3.50264,2.7349,996.483,13.4052,131.116,984.852,680.827,0,0,0.00120473,0.0001817,-0.0676525,1.79296,0.0224062,1.79481,0,0
507,0.00210814,-2.49827,-3.50244,2.7404,997.542,11.3085,131.446,985.875,682.007,0,0,0.00120473,0.0001817,-0.0670727,1.7959,0.0171235,1.79775,0,0
508,-0.00338208,-2.49817,-3.50225,2.74589,1002.18,8.846,130.589,990.553,681.275,0,0,0.00120473,0.0001817,-0.0669836,1.78361,0.0065174,1.78567,0,0
509,-0.0088723,-2.49807,-3.50205,2.75138,1007.17,6.3479,129.616,995.586,680.356,0,0,0.00120473,0.0001817,-0.0669424,1.76983,-0.00460706,1.77213,0,0
510,-0.0143625,-2.49797,-3.50186,2.75688,1012.15,3.84982,128.642,1000.62,679.438,0,0,0.00120473,0.0001817,-0.0669011,1.75605,-0.0157314,1.75859,0,0
511,-0.0198527,-2.49788,-3.50166,2.76237,1017.13,1.93958,126.882,1005.8,677.522,0,0,0.00120473,0.0001817,-0.0670015,1.74103,-0.0241771,1.74375,0,0
512,-0.025343,-2.49778,-3.50147,2.76787,1022.1,1.51834,123.129,1011.36,673.079,0,0,0.00120473,0.0001817,-0.0674606,1.72286,-0.025838,1.72562,0,0
513,-0.0308332,-2.49768,-3.50127,2.77336,1027.07,1.09712,119.375,1016.93,668.635,0,0,0.00120473,0.0001817,-0.0679197,1.70468,-0.0274986,1.7075,0,0
514,-0.0363234,-2.49758,-3.50107,2.77886,1032.04,0.675878,115.622,1022.49,664.192,0,0,0.00120473,0.0001817,-0.0683789,1.6865,-0.0291595,1.68938,0,0
515,-0.0418136,-2.49748,-3.50088,2.78435,1037.01,0.254659,111.869,1028.05,659.749,0,0,0.00120473,0.0001817,-0.068838,1.66833,-0.0308202,1.67125,0,0
516,-0.0473038,-2.49738,-3.50068,2.78985,1041.98,-0.166581,108.115,1033.61,655.305,0,0,0.00120473,0.0001817,-0.0692971,1.65015,-0.032481,1.65313,0,0
517,-0.052794,-2.49728,-3.50049,2.79534,1046.95,-0.58801,104.362,1039.17,650.862,0,0,0.00120473,0.0001817,-0.0697562,1.63197,-0.0341421,1.63501,0,0
518,-0.0582843,-2.49718,-3.50029,2.80084,1051.92,-1.00923,100.609,1044.74,646.418,0,0,0.00120473,0.0001817,-0.0702153,1.61379,-0.0358028,1.61688,0,0
519,-0.0637745,-2.49708,-3.5001,2.80633,1056.89,-1.43047,96.8556,1050.3,641.975,0,0,0.00120473,0.0001817,-0.0706744,1.59562,-0.0374636,1.59876,0,0
520,-0.0692647,-2.49699,-3.4999,2.81183,1061.86,-1.85169,93.1024,1055.86,637.531,0,0,0.00120473,0.0001817,-0.0711335,1.57744,-0.0391243,1.58064,0,0
521,-0.0747549,-2.49689,-3.49971,2.81732,1066.82,-2.27293,89.349,1061.42,633.088,0,0,0.00120473,0.0001817,-0.0715927,1.55926,-0.0407851,1.56251,0,0
522,-0.0782582,-2.49686,-3.50178,2.82139,1069.64,-2.68028,85.6303,1064.76,631.187,0,0,0.00120473,0.0001817,-0.0722449,1.55119,-0.0429463,1.55452,0,0
523,-0.0817615,-2.49684,-3.50385,2.82546,1072.9,-3.40122,82.5543,1068.42,630.319,0,0,0.00120473,0.0001817,-0.0725289,1.5446,-0.0455868,1.54811,0,0
524,-0.0852647,-2.49681,-3.50593,2.82953,1077.55,-5.10125,81.4861,1073.08,632.682,0,0,0.00120473,0.0001817,-0.0716628,1.54268,-0.0497237,1.54671,0,0
525,-0.088768,-2.49679,-3.508,2.8336,1082.21,-6.80146,80.4181,1077.75,635.044,0,0,0.00120473,0.0001817,-0.0707966,1.54076,-0.0538608,1.5453,0,0
526,-0.0922713,-2.49676,-3.51007,2.83768,1086.86,-8.50149,79.3499,1082.42,637.406,0,0,0.00120473,0.0001817,-0.0699305,1.53884,-0.0579977,1.54389,0,0
527,-0.0957746,-2.49674,-3.51215,2.84175,1091.51,-10.2015,78.2816,1087.09,639.769,0,0,0.00120473,0.0001817,-0.0690644,1.53692,-0.0621346,1.54248,0,0
528,-0.0992778,-2.49671,-3.51422,2.84582,1096.16,-11.9018,77.2136,1091.76,642.131,0,0,0.00120473,0.0001817,-0.0681982,1.535,-0.0662718,1.54107,0,0
529,-0.102781,-2.49669,-3.5163,2.84989,1100.81,-13.6018,76.1453,1096.43,644.494,0,0,0.00120473,0.0001817,-0.0673321,1.53308,-0.0704087,1.53966,0,0
530,-0.106284,-2.49666,-3.51837,2.85396,1105.46,-15.302,75.0773,1101.1,646.856,0,0,0.00120473,0.0001817,-0.066466,1.53116,-0.0745459,1.53826,0,0
531,-0.109788,-2.49664,-3.52044,2.85803,1110.11,-17.0021,74.009,1105.76,649.219,0,0,0.00120473,0.0001817,-0.0655999,1.52924,-0.0786829,1.53685,0,0
532,-0.113291,-2.49662,-3.52252,2.8621,1114.76,-18.7021,72.9409,1110.43,651.581,0,0,0.00120473,0.0001817,-0.0647338,1.52733,-0.0828196,1.53544,0,0
533,-0.116794,-2.49659,-3.52459,2.86617,1119.42,-20.4023,71.8728,1115.1,653.943,0,0,0.00120473,0.0001817,-0.0638676,1.5254,-0.0869568,1.53403,0,0
534,-0.120297,-2.49657,-3.52666,2.87024,1124.07,-22.1023,70.8046,1119.77,656.306,0,0,0.00120473,0.0001817,-0.0630015,1.52349,-0.0910937,1.53262,0,0
535,-0.123801,-2.49654,-3.52874,2.87432,1128.72,-23.8026,69.7365,1124.44,658.668,0,0,0.00120473,0.0001817,-0.0621353,1.52157,-0.095231,1.53121,0,0
536,-0.127304,-2.49652,-3.53081,2.87839,1133.37,-25.5026,68.6683,1129.11,661.031,0,0,0.00120473,0.0001817,-0.0612692,1.51965,-0.0993679,1.5298,0,0
537,-0.130807,-2.49649,-3.53289,2.88246,1138.09,-27.2018,67.5996,1133.84,663.226,0,0,0.00120473,0.0001817,-0.060394,1.51759,-0.103408,1.52825,0,0
538,-0.134311,-2.49647,-3.53496,2.88653,1144.69,-28.8754,66.5167,1140.44,660.31,0,0,0.00120473,0.0001817,-0.0592408,1.51126,-0.104518,1.52211,0,0
539,-0.137814,-2.49644,-3.53703,2.8906,1151.3,-30.5489,65.4335,1147.04,657.395,0,0,0.00120473,0.0001817,-0.0580876,1.50493,-0.105628,1.51598,0,0
540,-0.141317,-2.49642,-3.53911,2.89467,1157.9,-32.2226,64.3505,1153.64,654.479,0,0,0.00120473,0.0001817,-0.0569344,1.4986,-0.106738,1.50984,0,0
541,-0.14482,-2.49639,-3.54118,2.89874,1164.51,-33.896,63.2673,1160.23,651.564,0,0,0.00120473,0.0001817,-0.0557812,1.49228,-0.107848,1.50371,0,0
542,-0.146171,-2.49646,-3.5462,2.90394,1170.12,-35.1832,61.1415,1165.92,645.099,0,0,0.00120473,0.0001817,-0.0550717,1.49148,-0.106147,1.5027,0,0
543,-0.147521,-2.49652,-3.55123,2.90914,1175.73,-36.4704,59.0156,1171.6,638.634,0,0,0.00120473,0.0001817,-0.0543623,1.49069,-0.104446,1.50169,0,0
544,-0.148871,-2.49659,-3.55625,2.91435,1181.35,-37.7575,56.8899,1177.28,632.169,0,0,0.00120473,0.0001817,-0.0536528,1.4899,-0.102745,1.50069,0,0
545,-0.150221,-2.49665,-3.56127,2.91955,1186.96,-39.0445,54.7638,1182.96,625.704,0,0,0.00120473,0.0001817,-0.0529434,1.48911,-0.101043,1.49968,0,0
546,-0.151572,-2.49672,-3.56629,2.92475,1192.57,-40.3316,52.638,1188.64,619.239,0,0,0.00120473,0.0001817,-0.052234,1.48832,-0.0993424,1.49868,0,0
547,-0.152922,-2.49678,-3.57132,2.92995,1198.18,-41.6188,50.5122,1194.32,612.774,0,0,0.00120473,0.0001817,-0.0515245,1.48752,-0.0976415,1.49767,0,0
548,-0.154272,-2.49684,-3.57634,2.93515,1203.79,-42.906,48.3864,1200,606.308,0,0,0.00120473,0.0001817,-0.050815,1.48673,-0.0959404,1.49667,0,0
549,-0.155623,-2.49691,-3.58136,2.94035,1209.41,-44.1931,46.2606,1205.68,599.843,0,0,0.00120473,0.0001817,-0.0501056,1.48594,-0.0942395,1.49566,0,0
550,-0.156973,-2.49697,-3.58638,2.94555,1214.82,-45.3612,43.8571,1211.16,593.103,0,0,0.00120473,0.0001817,-0.0492597,1.48517,-0.0917563,1.49468,0,0
551,-0.158323,-2.49704,-3.59141,2.95076,1220,-46.3856,41.119,1216.37,586.032,0,0,0.00120473,0.0001817,-0.0482497,1.48442,-0.0883303,1.49374,0,0
552,-0.159673,-2.4971,-3.59643,2.95596,1225.17,-47.4102,38.3811,1221.6,578.961,0,0,0.00120473,0.0001817,-0.0472396,1.48368,-0.0849049,1.49279,0,0
553,-0.161024,-2.49717,-3.60145,2.96116,1230.35,-48.4349,35.6432,1226.82,571.89,0,0,0.00120473,0.0001817,-0.0462295,1.48293,-0.0814795,1.49185,0,0
554,-0.162374,-2.49723,-3.60647,2.96636,1235.53,-49.4595,32.9053,1232.04,564.819,0,0,0.00120473,0.0001817,-0.0452194,1.48219,-0.0780542,1.4909,0,0
555,-0.163724,-2.49729,-3.6115,2.97156,1240.71,-50.4841,30.1674,1237.26,557.747,0,0,0.00120473,0.0001817,-0.0442093,1.48144,-0.0746287,1.48996,0,0
556,-0.165074,-2.49736,-3.61652,2.97676,1245.88,-51.5087,27.4295,1242.48,550.676,0,0,0.00120473,0.0001817,-0.0431992,1.4807,-0.0712034,1.48901,0,0
557,-0.166425,-2.49742,-3.62154,2.98196,1251.06,-52.5334,24.6917,1247.7,543.605,0,0,0.00120473,0.0001817,-0.0421891,1.47995,-0.0677781,1.48807,0,0
558,-0.167775,-2.49749,-3.62656,2.98716,1256.24,-53.5578,21.9535,1252.92,536.534,0,0,0.00120473,0.0001817,-0.0411791,1.47921,-0.064352,1.48712,0,0
559,-0.169125,-2.49755,-3.63159,2.99237,1261.41,-54.5824,19.2156,1258.14,529.463,0,0,0.00120473,0.0001817,-0.040169,1.47846,-0.0609266,1.48618,0,0
560,-0.170475,-2.49762,-3.63661,2.99757,1266.59,-55.607,16.4777,1263.36,522.392,0,0,0.00120473,0.0001817,-0.0391589,1.47772,-0.0575012,1.48523,0,0
561,-0.171826,-2.49768,-3.64163,3.00277,1271.77,-56.6316,13.7398,1268.58,515.321,0,0,0.00120473,0.0001817,-0.0381488,1.47697,-0.0540758,1.48429,0,0
562,-0.173298,-2.49775,-3.64709,3.00843,1277.4,-57.7466,10.7607,1274.26,507.63,0,0,0.00120473,0.0001817,-0.0370485,1.47615,-0.0503487,1.48325,0,0
563,-0.17477,-2.49782,-3.65256,3.01408,1283.04,-58.8613,7.78139,1279.94,499.939,0,0,0.00120473,0.0001817,-0.0359482,1.47534,-0.046621,1.48222,0,0
564,-0.176242,-2.49789,-3.65802,3.01974,1287.26,-59.3698,5.82001,1284.27,495.863,0,0,0.00120473,0.0001817,-0.0367104,1.47819,-0.0465008,1.48492,0,0
565,-0.177714,-2.49796,-3.66348,3.0254,1291.45,-59.8633,3.88294,1288.57,491.875,0,0,0.00120473,0.0001817,-0.0375178,1.48114,-0.0464672,1.48771,0,0
566,-0.179186,-2.49803,-3.66894,3.03105,1295.64,-60.3571,1.9462,1292.87,487.886,0,0,0.00120473,0.0001817,-0.0383252,1.48408,-0.0464343,1.4905,0,0
567,-0.180658,-2.4981,-3.6744,3.03671,1299.83,-60.8509,0.0094652,1297.18,483.898,0,0,0.00120473,0.0001817,-0.0391326,1.48703,-0.0464015,1.49329,0,0
568,-0.18213,-2.49817,-3.67986,3.04237,1304.02,-61.3444,-1.92754,1301.48,479.91,0,0,0.00120473,0.0001817,-0.03994,1.48997,-0.0463679,1.49608,0,0
569,-0.183602,-2.49824,-3.68532,3.04802,1308.21,-61.8382,-3.86428,1305.78,475.921,0,0,0.00120473,0.0001817,-0.0407473,1.49292,-0.0463351,1.49887,0,0
570,-0.185075,-2.49831,-3.69079,3.05368,1306.07,-63.1625,-5.20086,1303.28,465.036,0,0,0.00120473,0.0001817,-0.0380847,1.49481,-0.0420131,1.50114,0,0
571,-0.186547,-2.49838,-3.69625,3.05934,1302.68,-64.6504,-6.4192,1299.45,452.793,0,0,0.00120473,0.0001817,-0.0347398,1.49649,-0.0368487,1.50331,0,0
572,-0.188019,-2.49845,-3.70171,3.06499,1304.24,-64.8424,-8.13285,1300.89,446.079,0,0,0.00120473,0.0001817,-0.0341597,1.5003,-0.0357339,1.50732,0,0
573,-0.189491,-2.49852,-3.70717,3.07065,1307.92,-64.475,-10.0605,1304.6,441.751,0,0,0.00120473,0.0001817,-0.0347727,1.50504,-0.0363659,1.51212,0,0
574,-0.190963,-2.49859,-3.71263,3.07631,1311.6,-64.1077,-11.988,1308.31,437.423,0,0,0.00120473,0.0001817,-0.0353858,1.50977,-0.0369988,1.51691,0,0
575,-0.192435,-2.49866,-3.71809,3.08196,1315.28,-63.7402,-13.9156,1312.02,433.095,0,0,0.00120473,0.0001817,-0.0359988,1.5145,-0.0376307,1.52171,0,0
576,-0.193907,-2.49873,-3.72355,3.08762,1312.68,-64.8911,-12.4679,1309.63,425.069,0,0,0.00120473,0.0001817,-0.0376858,1.5145,-0.0423988,1.52111,0,0
577,-0.195379,-2.4988,-3.72902,3.09328,1308.6,-66.3752,-10.2708,1305.81,416.231,0,0,0.00120473,0.0001817,-0.039583,1.51339,-0.047953,1.51927,0,0
578,-0.196851,-2.49887,-3.73448,3.09894,1308.57,-66.2353,-11.4156,1305.68,411.283,0,0,0.00120473,0.0001817,-0.0395438,1.51518,-0.0453473,1.52112,0,0
579,-0.198323,-2.49894,-3.73994,3.10459,1308.54,-66.0956,-12.5603,1305.55,406.336,0,0,0.00120473,0.0001817,-0.0395048,1.51697,-0.0427424,1.52297,0,0
580,-0.199795,-2.49901,-3.7454,3.11025,1308.51,-65.9557,-13.7051,1305.41,401.389,0,0,0.00120473,0.0001817,-0.0394656,1.51877,-0.0401369,1.52482,0,0
581,-0.201268,-2.49908,-3.75086,3.11591,1308.48,-65.816,-14.8498,1305.28,396.441,0,0,0.00120473,0.0001817,-0.0394266,1.52056,-0.037532,1.52667,0,0
582,-0.199036,-2.49921,-3.75624,3.12173,1308.27,-65.2824,-15.9639,1305.08,392.451,0,0,0.00120473,0.0001817,-0.0397871,1.52564,-0.0322955,1.5313,0,0
583,-0.196804,-2.49935,-3.76162,3.12756,1308.05,-64.7487,-17.0781,1304.88,388.46,0,0,0.00120473,0.0001817,-0.0401477,1.53071,-0.027059,1.53593,0,0
584,-0.194572,-2.49948,-3.767,3.13339,1307.84,-64.215,-18.1923,1304.67,384.469,0,0,0.00120473,0.0001817,-0.0405082,1.53579,-0.0218224,1.54056,0,0
585,-0.19234,-2.49961,-3.77239,3.13921,1307.63,-63.6815,-19.3063,1304.47,380.479,0,0,0.00120473,0.0001817,-0.0408689,1.54087,-0.0165866,1.54519,0,0
586,-0.190109,-2.49975,-3.77777,3.14504,1307.42,-63.1479,-20.4204,1304.26,376.488,0,0,0.00120473,0.0001817,-0.0412295,1.54594,-0.0113501,1.54982,0,0
587,-0.187877,-2.49988,-3.78315,3.15087,1307.2,-62.6142,-21.5346,1304.06,372.498,0,0,0.00120473,0.0001817,-0.04159,1.55102,-0.00611364,1.55446,0,0
588,-0.185645,-2.50001,-3.78853,3.15669,1306.99,-62.0805,-22.6487,1303.86,368.507,0,0,0.00120473,0.0001817,-0.0419506,1.55609,-0.000877156,1.55909,0,0
589,-0.183413,-2.50014,-3.79391,3.16252,1306.78,-61.5469,-23.7629,1303.65,364.516,0,0,0.00120473,0.0001817,-0.0423111,1.56117,0.00435949,1.56372,0,0
590,-0.181181,-2.50028,-3.79929,3.16835,1310.04,-61.1951,-24.4266,1305.32,360.544,0,0,0.00120473,0.0001817,-0.0428587,1.56244,0.00805516,1.56462,0,0
591,-0.178949,-2.50041,-3.80467,3.17417,1325.62,-61.4869,-23.4965,1313.61,356.639,0,0,0.00120473,0.0001817,-0.0440679,1.55026,0.00629858,1.55234,0,0
592,-0.176718,-2.50054,-3.81005,3.18,1341.2,-61.7789,-22.5664,1321.91,352.734,0,0,0.00120473,0.0001817,-0.0452772,1.53807,0.00454185,1.54005,0,0
593,-0.174486,-2.50068,-3.81543,3.18583,1356.78,-62.0707,-21.6362,1330.2,348.828,0,0,0.00120473,0.0001817,-0.0464864,1.52588,0.00278529,1.52777,0,0
594,-0.172254,-2.50081,-3.82081,3.19165,1372.35,-62.3626,-20.7061,1338.5,344.922,0,0,0.00120473,0.0001817,-0.0476957,1.5137,0.00102873,1.51548,0,0
595,-0.170022,-2.50094,-3.82619,3.19748,1387.93,-62.6544,-19.7759,1346.79,341.017,0,0,0.00120473,0.0001817,-0.0489049,1.50151,-0.000727838,1.5032,0,0
596,-0.16779,-2.50108,-3.83157,3.20331,1401.66,-62.8432,-19.0901,1354.08,337.048,0,0,0.00120473,0.0001817,-0.0499055,1.49079,-0.00219829,1.4924,0,0
597,-0.165559,-2.50121,-3.83695,3.20913,1404.69,-62.4359,-19.818,1355.52,332.71,0,0,0.00120473,0.0001817,-0.0496992,1.48856,-0.00201341,1.4902,0,0
598,-0.163327,-2.50134,-3.84233,3.21496,1407.72,-62.0287,-20.546,1356.96,328.373,0,0,0.00120473,0.0001817,-0.049493,1.48633,-0.00182867,1.488,0,0
599,-0.161095,-2.50147,-3.84771,3.22079,1410.75,-61.6214,-21.2739,1358.41,324.036,0,0,0.00120473,0.0001817,-0.0492867,1.4841,-0.00164375,1.48581,0,0
600,-0.158863,-2.50161,-3.8531,3.22661,1413.78,-61.2141,-22.0019,1359.85,319.698,0,0,0.00120473,0.0001817,-0.0490804,1.48187,-0.00145886,1.48361,0,0
601,-0.156631,-2.50174,-3.85848,3.23244,1416.82,-60.8068,-22.7298,1361.29,315.361,0,0,0.00120473,0.0001817,-0.0488741,1.47964,-0.00127398,1.48141,0,0
602,-0.152907,-2.50187,-3.86199,3.23757,1417.53,-60.2016,-23.3739,1361.49,312.766,0,0,0.00120473,0.0001817,-0.0483225,1.47843,-0.00192818,1.48022,0,0
603,-0.149182,-2.50199,-3.86551,3.24269,1418.25,-59.5965,-24.018,1361.69,310.172,0,0,0.00120473,0.0001817,-0.0477709,1.47723,-0.00258239,1.47903,0,0
604,-0.145458,-2.50212,-3.86903,3.24782,1418.97,-58.9914,-24.6621,1361.89,307.578,0,0,0.00120473,0.0001817,-0.0472194,1.47602,-0.00323659,1.47784,0,0
605,-0.141733,-2.50225,-3.87255,3.25294,1419.69,-58.3862,-25.3063,1362.09,304.983,0,0,0.00120473,0.0001817,-0.0466678,1.47481,-0.0038908,1.47665,0,0
606,-0.138008,-2.50237,-3.87607,3.25807,1402.45,-56.7183,-24.0935,1352.78,302.139,0,0,0.00120473,0.0001817,-0.047976,1.49485,-0.00248626,1.49674,0,0
607,-0.134284,-2.5025,-3.87959,3.26319,1382.86,-54.9113,-22.6377,1342.23,299.261,0,0,0.00120473,0.0001817,-0.0495276,1.51767,-0.00081216,1.51961,0,0
608,-0.130559,-2.50263,-3.88311,3.26832,1363.28,-53.1044,-21.1819,1331.67,296.383,0,0,0.00120473,0.0001817,-0.0510792,1.54049,0.000861786,1.54248,0,0
609,-0.126835,-2.50275,-3.88663,3.27344,1343.69,-51.2974,-19.7261,1321.12,293.506,0,0,0.00120473,0.0001817,-0.0526307,1.56332,0.00253574,1.56536,0,0
610,-0.12311,-2.50288,-3.89015,3.27857,1324.11,-49.4905,-18.2704,1310.57,290.628,0,0,0.00120473,0.0001817,-0.0541823,1.58614,0.00420968,1.58823,0,0
611,-0.119386,-2.503,-3.89367,3.2837,1304.52,-47.6835,-16.8145,1300.01,287.75,0,0,0.00120473,0.0001817,-0.0557341,1.60896,0.00588384,1.61111,0,0
612,-0.115661,-2.50313,-3.89719,3.28882,1299.24,-46.6819,-16.4912,1297.57,284.857,0,0,0.00120473,0.0001817,-0.0555246,1.61112,0.00569028,1.61329,0,0
613,-0.111936,-2.50326,-3.9007,3.29395,1300.47,-46.046,-16.682,1298.8,281.955,0,0,0.00120473,0.0001817,-0.0545156,1.60389,0.00464893,1.60609,0,0
614,-0.108212,-2.50338,-3.90422,3.29907,1301.69,-45.4101,-16.8728,1300.04,279.054,0,0,0.00120473,0.0001817,-0.0535066,1.59666,0.00360758,1.59888,0,0
615,-0.104487,-2.50351,-3.90774,3.3042,1302.91,-44.7742,-17.0635,1301.27,276.153,0,0,0.00120473,0.0001817,-0.0524976,1.58944,0.00256623,1.59168,0,0
616,-0.100763,-2.50364,-3.91126,3.30932,1304.13,-44.1381,-17.2541,1302.5,273.251,0,0,0.00120473,0.0001817,-0.0514888,1.58221,0.00152522,1.58447,0,0
617,-0.097038,-2.50376,-3.91478,3.31445,1305.35,-43.5022,-17.4449,1303.74,270.35,0,0,0.00120473,0.0001817,-0.0504798,1.57498,0.000483865,1.57727,0,0
618,-0.0933134,-2.50389,-3.9183,3.31958,1306.58,-42.8663,-17.6357,1304.97,267.448,0,0,0.00120473,0.0001817,-0.0494708,1.56776,-0.000557486,1.57006,0,0
619,-0.0895888,-2.50402,-3.92182,3.3247,1307.8,-42.2304,-17.8265,1306.21,264.547,0,0,0.00120473,0.0001817,-0.0484618,1.56053,-0.00159884,1.56285,0,0
620,-0.0858643,-2.50414,-3.92534,3.32983,1309.02,-41.5945,-18.0173,1307.44,261.646,0,0,0.00120473,0.0001817,-0.0474528,1.5533,-0.00264019,1.55565,0,0
621,-0.0821397,-2.50427,-3.92886,3.33495,1310.25,-40.9586,-18.2081,1308.68,258.744,0,0,0.00120473,0.0001817,-0.0464438,1.54608,-0.00368154,1.54844,0,0
622,-0.0765664,-2.50437,-3.92939,3.34055,1310.12,-40.2567,-18.8384,1308.57,258.856,0,0,0.00120473,0.0001817,-0.0450907,1.5423,-0.00585538,1.54466,0,0
623,-0.0709932,-2.50448,-3.92993,3.34615,1309.99,-39.5548,-19.4688,1308.47,258.969,0,0,0.00120473,0.0001817,-0.0437376,1.53853,-0.00802925,1.54088,0,0
624,-0.06542,-2.50459,-3.93046,3.35175,1309.87,-38.8529,-20.0992,1308.37,259.081,0,0,0.00120473,0.0001817,-0.0423845,1.53476,-0.0102031,1.5371,0,0
625,-0.0598468,-2.50469,-3.931,3.35735,1309.74,-38.151,-20.7295,1308.26,259.193,0,0,0.00120473,0.0001817,-0.0410313,1.53099,-0.012377,1.53332,0,0
626,-0.0542735,-2.5048,-3.93153,3.36295,1309.61,-37.4491,-21.3599,1308.16,259.305,0,0,0.00120473,0.0001817,-0.0396782,1.52722,-0.0145508,1.52954,0,0
627,-0.0487003,-2.50491,-3.93207,3.36855,1309.49,-36.7472,-21.9902,1308.05,259.417,0,0,0.00120473,0.0001817,-0.0383251,1.52344,-0.0167247,1.52576,0,0
628,-0.0431271,-2.50501,-3.9326,3.37415,1309.36,-36.0454,-22.6206,1307.95,259.53,0,0,0.00120473,0.0001817,-0.0369719,1.51967,-0.0188985,1.52197,0,0
629,-0.0375539,-2.50512,-3.93314,3.37975,1308.57,-36.2219,-22.3095,1306.82,259.546,0,0,0.00120473,0.0001817,-0.0327736,1.50823,-0.0289044,1.5106,0,0
630,-0.0319806,-2.50523,-3.93368,3.38535,1307.18,-37.2023,-21.1371,1304.75,259.473,0,0,0.00120473,0.0001817,-0.0259719,1.48978,-0.0460762,1.49228,0,0
631,-0.0264074,-2.50533,-3.93421,3.39095,1305.79,-38.1826,-19.9648,1302.69,259.402,0,0,0.00120473,0.0001817,-0.0191703,1.47133,-0.0632478,1.47396,0,0
632,-0.0208342,-2.50544,-3.93475,3.39655,1302.89,-39.237,-18.5595,1298.93,259.145,0,0,0.00120473,0.0001817,-0.0134528,1.45668,-0.0767848,1.45937,0,0
633,-0.015261,-2.50554,-3.93528,3.40215,1293.18,-40.6266,-16.1031,1287.56,258.055,0,0,0.00120473,0.0001817,-0.0126334,1.45918,-0.0738993,1.46161,0,0
634,-0.00968775,-2.50565,-3.93582,3.40775,1283.47,-42.0161,-13.6468,1276.19,256.964,0,0,0.00120473,0.0001817,-0.011814,1.46168,-0.0710137,1.46385,0,0
635,-0.00411452,-2.50576,-3.93635,3.41335,1273.76,-43.4057,-11.1905,1264.82,255.874,0,0,0.00120473,0.0001817,-0.0109946,1.46418,-0.0681281,1.46609,0,0
636,0.0014587,-2.50586,-3.93689,3.41895,1264.04,-44.7952,-8.73423,1253.45,254.784,0,0,0.00120473,0.0001817,-0.0101752,1.46668,-0.0652426,1.46833,0,0
637,0.00703193,-2.50597,-3.93742,3.42455,1261.56,-43.8282,-8.60395,1250.89,254.785,0,0,0.00120473,0.0001817,-0.00911947,1.48072,-0.0628219,1.48233,0,0
638,0.0126052,-2.50608,-3.93796,3.43015,1259.11,-42.8479,-8.48687,1248.38,254.792,0,0,0.00120473,0.0001817,-0.00806244,1.49482,-0.0604038,1.49639,0,0
639,0.0181784,-2.50618,-3.93849,3.43575,1256.66,-41.8675,-8.36984,1245.86,254.799,0,0,0.00120473,0.0001817,-0.00700545,1.50893,-0.0579858,1.51045,0,0
640,0.0237516,-2.50629,-3.93903,3.44135,1254.22,-40.8872,-8.25282,1243.35,254.806,0,0,0.00120473,0.0001817,-0.00594846,1.52303,-0.0555677,1.52451,0,0
641,0.0293248,-2.5064,-3.93956,3.44695,1251.77,-39.9069,-8.13574,1240.84,254.813,0,0,0.00120473,0.0001817,-0.00489142,1.53714,-0.0531496,1.53856,0,0
642,0.0324085,-2.50642,-3.93788,3.45046,1249.36,-39.0623,-8.41934,1238.59,256.088,0,0,0.00120473,0.0001817,-0.0046779,1.54456,-0.0520765,1.54595,0,0
643,0.0354923,-2.50644,-3.9362,3.45397,1245.91,-38.0656,-8.54064,1235.31,256.734,0,0,0.00120473,0.0001817,-0.00450127,1.54964,-0.0512083,1.55101,0,0
644,0.038576,-2.50647,-3.93452,3.45749,1242.45,-37.069,-8.66157,1232.03,257.38,0,0,0.00120473,0.0001817,-0.00432459,1.55473,-0.0503404,1.55607,0,0
645,0.0416597,-2.50649,-3.93284,3.461,1238.99,-36.0724,-8.78251,1228.74,258.027,0,0,0.00120473,0.0001817,-0.00414791,1.55981,-0.0494724,1.56112,0,0
646,0.0447434,-2.50652,-3.93116,3.46451,1235.54,-35.0757,-8.90381,1225.46,258.673,0,0,0.00120473,0.0001817,-0.00397127,1.5649,-0.0486043,1.56618,0,0
647,0.0478271,-2.50654,-3.92948,3.46802,1232.08,-34.0791,-9.02479,1222.18,259.32,0,0,0.00120473,0.0001817,-0.00379463,1.56999,-0.0477364,1.57124,0,0
648,0.0509108,-2.50656,-3.9278,3.47154,1228.62,-33.0825,-9.14572,1218.89,259.966,0,0,0.00120473,0.0001817,-0.00361795,1.57507,-0.0468684,1.57629,0,0
649,0.0539946,-2.50659,-3.92612,3.47505,1225.17,-32.0858,-9.26702,1215.61,260.612,0,0,0.00120473,0.0001817,-0.00344131,1.58016,-0.0460002,1.58135,0,0
650,0.0570783,-2.50661,-3.92444,3.47856,1221.71,-31.0892,-9.38795,1212.32,261.258,0,0,0.00120473,0.0001817,-0.00326463,1.58525,-0.0451323,1.5864,0,0
651,0.060162,-2.50664,-3.92276,3.48207,1218.25,-30.0925,-9.50889,1209.04,261.905,0,0,0.00120473,0.0001817,-0.00308795,1.59033,-0.0442643,1.59146,0,0
652,0.0632457,-2.50666,-3.92108,3.48558,1214.8,-29.0959,-9.63019,1205.76,262.551,0,0,0.00120473,0.0001817,-0.00291131,1.59542,-0.0433962,1.59652,0,0
653,0.0663294,-2.50669,-3.91939,3.4891,1211.34,-28.0993,-9.75112,1202.47,263.197,0,0,0.00120473,0.0001817,-0.00273463,1.6005,-0.0425282,1.60157,0,0
654,0.0694131,-2.50671,-3.91771,3.49261,1207.88,-27.1026,-9.87242,1199.19,263.844,0,0,0.00120473,0.0001817,-0.002558,1.60559,-0.0416601,1.60663,0,0
655,0.0724969,-2.50673,-3.91603,3.49612,1204.43,-26.106,-9.99335,1195.91,264.49,0,0,0.00120473,0.0001817,-0.00238132,1.61068,-0.0407921,1.61169,0,0
656,0.0755806,-2.50676,-3.91435,3.49963,1200.97,-25.1093,-10.1143,1192.62,265.136,0,0,0.00120473,0.0001817,-0.00220468,1.61576,-0.0399242,1.61674,0,0
657,0.0786643,-2.50678,-3.91267,3.50315,1197.51,-24.1127,-10.2356,1189.34,265.783,0,0,0.00120473,0.0001817,-0.00202804,1.62085,-0.039056,1.6218,0,0
658,0.081748,-2.50681,-3.91099,3.50666,1194.05,-23.116,-10.3566,1186.06,266.429,0,0,0.00120473,0.0001817,-0.00185136,1.62594,-0.0381881,1.62685,0,0
659,0.0848317,-2.50683,-3.90931,3.51017,1190.6,-22.1194,-10.4775,1182.77,267.075,0,0,0.00120473,0.0001817,-0.00167468,1.63102,-0.0373201,1.63191,0,0
660,0.0879154,-2.50686,-3.90763,3.51368,1187.14,-21.1227,-10.5988,1179.49,267.722,0,0,0.00120473,0.0001817,-0.00149804,1.63611,-0.036452,1.63697,0,0
661,0.0909992,-2.50688,-3.90595,3.51719,1183.68,-20.1261,-10.7197,1176.2,268.368,0,0,0.00120473,0.0001817,-0.00132136,1.64119,-0.035584,1.64202,0,0
662,0.0925695,-2.50685,-3.90253,3.52096,1181.38,-19.3451,-11.3595,1174.23,270.834,0,0,0.00120473,0.0001817,-0.00168418,1.6451,-0.0353258,1.64591,0,0
663,0.0941399,-2.50681,-3.89911,3.52472,1179.08,-18.564,-11.9997,1172.25,273.299,0,0,0.00120473,0.0001817,-0.00204704,1.649,-0.0350673,1.64979,0,0
664,0.0957102,-2.50678,-3.89569,3.52848,1176.78,-17.7829,-12.6394,1170.28,275.765,0,0,0.00120473,0.0001817,-0.00240982,1.65291,-0.034809,1.65367,0,0
665,0.0972805,-2.50675,-3.89227,3.53224,1174.47,-17.0019,-13.2792,1168.3,278.231,0,0,0.00120473,0.0001817,-0.00277264,1.65681,-0.0345507,1.65755,0,0
666,0.0988509,-2.50672,-3.88885,3.53601,1172.18,-16.2208,-13.9193,1166.32,280.697,0,0,0.00120473,0.0001817,-0.0031355,1.66072,-0.0342923,1.66144,0,0
667,0.100421,-2.50668,-3.88543,3.53977,1169.87,-15.4397,-14.5591,1164.35,283.162,0,0,0.00120473,0.0001817,-0.00349828,1.66462,-0.034034,1.66532,0,0
668,0.101992,-2.50665,-3.88201,3.54353,1167.57,-14.6587,-15.1988,1162.37,285.628,0,0,0.00120473,0.0001817,-0.0038611,1.66853,-0.0337757,1.6692,0,0
669,0.103562,-2.50662,-3.87859,3.54729,1176.41,-13.308,-17.3691,1168.59,288.244,0,0,0.00120473,0.0001817,-0.00432155,1.66555,-0.0319199,1.66616,0,0
670,0.105132,-2.50659,-3.87518,3.55106,1191.25,-11.6502,-20.3642,1179.22,290.942,0,0,0.00120473,0.0001817,-0.0048346,1.65887,-0.0292029,1.65938,0,0
671,0.106703,-2.50655,-3.87176,3.55482,1206.09,-9.99251,-23.3594,1189.85,293.639,0,0,0.00120473,0.0001817,-0.00534766,1.65219,-0.026486,1.65261,0,0
672,0.108273,-2.50652,-3.86834,3.55858,1220.93,-8.33482,-26.3542,1200.48,296.336,0,0,0.00120473,0.0001817,-0.00586065,1.6455,-0.0237692,1.64583,0,0
673,0.109843,-2.50649,-3.86492,3.56235,1218.14,-7.546,-25.8969,1197.79,298.902,0,0,0.00120473,0.0001817,-0.00581712,1.64625,-0.0228593,1.64655,0,0
674,0.111414,-2.50646,-3.8615,3.56611,1213.67,-6.84077,-25.1079,1193.83,301.456,0,0,0.00120473,0.0001817,-0.00572012,1.64771,-0.0221232,1.64799,0,0
675,0.112984,-2.50642,-3.85808,3.56987,1209.19,-6.13549,-24.3188,1189.87,304.009,0,0,0.00120473,0.0001817,-0.00562308,1.64917,-0.021387,1.64943,0,0
676,0.114554,-2.50639,-3.85466,3.57363,1204.71,-5.4302,-23.5296,1185.9,306.563,0,0,0.00120473,0.0001817,-0.00552605,1.65063,-0.0206508,1.65087,0,0
677,0.116125,-2.50636,-3.85124,3.5774,1200.23,-4.72496,-22.7405,1181.94,309.116,0,0,0.00120473,0.0001817,-0.00542904,1.65209,-0.0199147,1.65232,0,0
678,0.117695,-2.50633,-3.84782,3.58116,1195.75,-4.01967,-21.9514,1177.97,311.67,0,0,0.00120473,0.0001817,-0.00533201,1.65355,-0.0191785,1.65375,0,0
679,0.119265,-2.50629,-3.8444,3.58492,1191.27,-3.31437,-21.1622,1174.01,314.223,0,0,0.00120473,0.0001817,-0.00523497,1.65501,-0.0184423,1.65519,0,0
680,0.120836,-2.50626,-3.84098,3.58868,1186.79,-2.60916,-20.3732,1170.05,316.777,0,0,0.00120473,0.0001817,-0.00513796,1.65647,-0.0177062,1.65664,0,0
681,0.122406,-2.50623,-3.83757,3.59245,1173.83,-1.91779,-21.7083,1167.32,319.582,0,0,0.00120473,0.0001817,-0.00683486,1.67403,-0.0184883,1.67423,0,0
682,0.124611,-2.5062,-3.83346,3.59711,1164.86,-1.02639,-22.2039,1164.55,322.839,0,0,0.00120473,0.0001817,-0.008262,1.68448,-0.0172172,1.68473,0,0
683,0.126815,-2.50616,-3.82935,3.60177,1162.44,-0.147078,-21.5198,1162.14,326.023,0,0,0.00120473,0.0001817,-0.00894069,1.68397,-0.014157,1.68425,0,0
684,0.12902,-2.50613,-3.82525,3.60643,1160.03,0.732312,-20.8358,1159.73,329.207,0,0,0.00120473,0.0001817,-0.00961951,1.68345,-0.0110968,1.68377,0,0
685,0.131224,-2.5061,-3.82114,3.61109,1157.61,1.61162,-20.1518,1157.32,332.391,0,0,0.00120473,0.0001817,-0.0102982,1.68293,-0.00803661,1.68329,0,0
686,0.133429,-2.50606,-3.81704,3.61575,1155.19,2.49101,-19.4677,1154.9,335.575,0,0,0.00120473,0.0001817,-0.010977,1.68241,-0.00497639,1.68281,0,0
687,0.135634,-2.50603,-3.81293,3.62041,1152.77,3.37032,-18.7837,1152.49,338.759,0,0,0.00120473,0.0001817,-0.0116557,1.68189,-0.00191624,1.68233,0,0
688,0.137838,-2.506,-3.80883,3.62507,1150.35,4.24971,-18.0997,1150.08,341.943,0,0,0.00120473,0.0001817,-0.0123345,1.68137,0.001144,1.68185,0,0
689,0.140043,-2.50596,-3.80472,3.62973,1147.94,5.12902,-17.4156,1147.67,345.127,0,0,0.00120473,0.0001817,-0.0130132,1.68085,0.00420415,1.68137,0,0
690,0.142247,-2.50593,-3.80061,3.63439,1145.52,6.00841,-16.7316,1145.25,348.311,0,0,0.00120473,0.0001817,-0.0136921,1.68033,0.00726438,1.68089,0,0
691,0.144452,-2.50589,-3.79651,3.63905,1143.1,6.88772,-16.0476,1142.84,351.495,0,0,0.00120473,0.0001817,-0.0143707,1.67981,0.0103245,1.68041,0,0
692,0.146656,-2.50586,-3.7924,3.64371,1140.68,7.76711,-15.3636,1140.43,354.679,0,0,0.00120473,0.0001817,-0.0150496,1.67929,0.0133848,1.67993,0,0
693,0.148861,-2.50583,-3.7883,3.64837,1138.26,8.6465,-14.6795,1138.01,357.863,0,0,0.00120473,0.0001817,-0.0157284,1.67877,0.016445,1.67945,0,0
694,0.151066,-2.50579,-3.78419,3.65303,1135.85,9.52581,-13.9955,1135.6,361.047,0,0,0.00120473,0.0001817,-0.0164071,1.67825,0.0195051,1.67896,0,0
695,0.15327,-2.50576,-3.78009,3.65769,1135.38,10.3933,-12.976,1133.52,364.286,0,0,0.00120473,0.0001817,-0.0169158,1.67369,0.0222643,1.67447,0,0
696,0.155475,-2.50573,-3.77598,3.66235,1129.89,10.9944,-12.8004,1129.52,367.367,0,0,0.00120473,0.0001817,-0.0178534,1.67266,0.0232038,1.67361,0,0
697,0.157679,-2.50569,-3.77187,3.66701,1131.2,11.7621,-12.2405,1130.79,370.404,0,0,0.00120473,0.0001817,-0.0184823,1.66437,0.026957,1.66569,0,0
698,0.159884,-2.50566,-3.76777,3.67167,1132.52,12.5299,-11.6805,1132.07,373.44,0,0,0.00120473,0.0001817,-0.019111,1.65608,0.030711,1.65777,0,0
699,0.162088,-2.50563,-3.76366,3.67633,1133.84,13.2976,-11.1206,1133.34,376.477,0,0,0.00120473,0.0001817,-0.0197399,1.6478,0.0344642,1.64984,0,0
700,0.164293,-2.50559,-3.75956,3.68099,1135.15,14.0654,-10.5607,1134.62,379.513,0,0,0.00120473,0.0001817,-0.0203686,1.63951,0.0382181,1.64192,0,0
701,0.166498,-2.50556,-3.75545,3.68565,1136.47,14.8331,-10.0008,1135.89,382.55,0,0,0.00120473,0.0001817,-0.0209975,1.63122,0.0419713,1.634,0,0
702,0.163807,-2.50544,-3.75124,3.69065,1134.97,14.8256,-9.08434,1134.55,387.037,0,0,0.00120473,0.0001817,-0.0216081,1.63469,0.0434441,1.63709,0,0
703,0.161117,-2.50532,-3.74703,3.69564,1133.48,14.818,-8.16785,1133.21,391.525,0,0,0.00120473,0.0001817,-0.0222185,1.63816,0.0449177,1.64019,0,0
704,0.158427,-2.5052,-3.74282,3.70064,1126.68,14.7824,-7.29463,1126.47,395.544,0,0,0.00120473,0.0001817,-0.0232158,1.63905,0.0437901,1.64062,0,0
705,0.155737,-2.50508,-3.73861,3.70564,1117.69,14.695,-6.47247,1117.49,399.314,0,0,0.00120473,0.0001817,-0.0244009,1.63732,0.0412971,1.63844,0,0
706,0.153047,-2.50496,-3.73441,3.71064,1117.96,14.3938,-5.79297,1117.76,403.525,0,0,0.00120473,0.0001817,-0.0251033,1.62985,0.0413748,1.631,0,0
707,0.150356,-2.50484,-3.7302,3.71563,1118.23,14.0926,-5.1134,1118.03,407.736,0,0,0.00120473,0.0001817,-0.0258057,1.62238,0.0414526,1.62356,0,0
708,0.147666,-2.50472,-3.72599,3.72063,1118.5,13.7913,-4.4339,1118.31,411.948,0,0,0.00120473,0.0001817,-0.0265081,1.61491,0.0415303,1.61611,0,0
709,0.144976,-2.5046,-3.72178,3.72563,1118.77,13.4901,-3.75441,1118.58,416.159,0,0,0.00120473,0.0001817,-0.0272104,1.60744,0.0416081,1.60867,0,0
710,0.142286,-2.50448,-3.71757,3.73062,1119.05,13.1888,-3.07487,1118.85,420.37,0,0,0.00120473,0.0001817,-0.0279128,1.59997,0.0416858,1.60123,0,0
711,0.139596,-2.50436,-3.71336,3.73562,1119.32,12.8876,-2.39537,1119.13,424.581,0,0,0.00120473,0.0001817,-0.0286152,1.59251,0.0417635,1.59378,0,0
712,0.136905,-2.50423,-3.70915,3.74062,1119.59,12.5863,-1.71584,1119.4,428.793,0,0,0.00120473,0.0001817,-0.0293176,1.58504,0.0418413,1.58634,0,0
713,0.134215,-2.50411,-3.70494,3.74561,1119.86,12.2851,-1.0363,1119.68,433.004,0,0,0.00120473,0.0001817,-0.03002,1.57757,0.0419191,1.5789,0,0
714,0.131525,-2.50399,-3.70073,3.75061,1120.13,11.9838,-0.356801,1119.95,437.215,0,0,0.00120473,0.0001817,-0.0307224,1.5701,0.0419968,1.57146,0,0
715,0.128835,-2.50387,-3.69652,3.75561,1121.43,11.7663,1.3572,1121.22,440.571,0,0,0.00120473,0.0001817,-0.0311158,1.57037,0.0412457,1.5717,0,0
716,0.126144,-2.50375,-3.69231,3.7606,1123.29,11.5937,3.62655,1123.02,443.468,0,0,0.00120473,0.0001817,-0.0313434,1.5748,0.0400496,1.57607,0,0
717,0.123454,-2.50363,-3.68811,3.7656,1123.18,11.5061,5.14748,1122.85,446.929,0,0,0.00120473,0.0001817,-0.031662,1.57376,0.0374299,1.57504,0,0
718,0.120764,-2.50351,-3.6839,3.7706,1121.94,11.4673,6.24001,1121.54,450.712,0,0,0.00120473,0.0001817,-0.0320328,1.56959,0.0339953,1.57091,0,0
719,0.118074,-2.50339,-3.67969,3.77559,1120.7,11.4285,7.33255,1120.23,454.495,0,0,0.00120473,0.0001817,-0.0324037,1.56542,0.0305608,1.56679,0,0
720,0.115384,-2.50327,-3.67548,3.78059,1119.46,11.3896,8.42535,1118.92,458.278,0,0,0.00120473,0.0001817,-0.0327745,1.56126,0.0271264,1.56266,0,0
721,0.112693,-2.50315,-3.67127,3.78559,1118.22,11.3508,9.51789,1117.61,462.061,0,0,0.00120473,0.0001817,-0.0331453,1.55709,0.0236918,1.55854,0,0
722,0.109081,-2.50302,-3.66751,3.79081,1117.83,11.0159,10.4616,1117.16,465.756,0,0,0.00120473,0.0001817,-0.0334445,1.55203,0.0197348,1.55351,0,0
723,0.105469,-2.50289,-3.66374,3.79602,1117.44,10.6811,11.4053,1116.7,469.451,0,0,0.00120473,0.0001817,-0.0337437,1.54696,0.0157777,1.54848,0,0
724,0.101856,-2.50276,-3.65998,3.80124,1117.05,10.3462,12.349,1116.25,473.145,0,0,0.00120473,0.0001817,-0.0340429,1.5419,0.0118206,1.54345,0,0
725,0.0982437,-2.50264,-3.65622,3.80646,1116.66,10.0114,13.2924,1115.8,476.84,0,0,0.00120473,0.0001817,-0.0343421,1.53683,0.00786331,1.53842,0,0
726,0.0946312,-2.50251,-3.65245,3.81168,1116.27,9.67654,14.2361,1115.34,480.534,0,0,0.00120473,0.0001817,-0.0346412,1.53177,0.00390629,1.53339,0,0
727,0.0910188,-2.50238,-3.64869,3.8169,1115.88,9.34171,15.1798,1114.89,484.229,0,0,0.00120473,0.0001817,-0.0349405,1.52671,-5.08E-05,1.52836,0,0
728,0.0874063,-2.50225,-3.64493,3.82211,1115.49,9.00685,16.1235,1114.43,487.923,0,0,0.00120473,0.0001817,-0.0352396,1.52164,-0.00400786,1.52333,0,0
729,0.0837939,-2.50212,-3.64116,3.82733,1115.1,8.67199,17.0671,1113.98,491.617,0,0,0.00120473,0.0001817,-0.0355388,1.51658,-0.00796488,1.5183,0,0
730,0.0801814,-2.50199,-3.6374,3.83255,1114.71,8.33716,18.0109,1113.53,495.312,0,0,0.00120473,0.0001817,-0.035838,1.51151,-0.011922,1.51327,0,0
731,0.076569,-2.50186,-3.63364,3.83777,1114.32,8.00234,18.9543,1113.07,499.007,0,0,0.00120473,0.0001817,-0.0361372,1.50645,-0.0158793,1.50824,0,0
732,0.0729566,-2.50173,-3.62987,3.84299,1113.93,7.66748,19.898,1112.62,502.701,0,0,0.00120473,0.0001817,-0.0364364,1.50139,-0.0198364,1.50321,0,0
733,0.0693441,-2.50161,-3.62611,3.8482,1113.54,7.33265,20.8417,1112.16,506.396,0,0,0.00120473,0.0001817,-0.0367356,1.49632,-0.0237935,1.49818,0,0
734,0.0657317,-2.50148,-3.62235,3.85342,1112.3,6.85995,23.2686,1110.9,511.504,0,0,0.00120473,0.0001817,-0.0371467,1.50481,-0.0230787,1.50661,0,0
735,0.0621192,-2.50135,-3.61858,3.85864,1110.61,6.31295,26.4951,1109.2,517.374,0,0,0.00120473,0.0001817,-0.0376182,1.52062,-0.0198457,1.5223,0,0
736,0.0585068,-2.50122,-3.61482,3.86386,1108.92,5.76599,29.7216,1107.5,523.244,0,0,0.00120473,0.0001817,-0.0380897,1.53642,-0.0166125,1.53799,0,0
737,0.0548943,-2.50109,-3.61106,3.86908,1107.22,5.21899,32.948,1105.8,529.113,0,0,0.00120473,0.0001817,-0.0385611,1.55222,-0.0133795,1.55368,0,0
738,0.0512819,-2.50096,-3.60729,3.8743,1105.53,4.67203,36.1742,1104.1,534.983,0,0,0.00120473,0.0001817,-0.0390326,1.56802,-0.0101468,1.56936,0,0
739,0.0476694,-2.50083,-3.60353,3.87951,1103.83,4.12503,39.4006,1102.4,540.853,0,0,0.00120473,0.0001817,-0.0395041,1.58383,-0.00691378,1.58505,0,0
740,0.044057,-2.5007,-3.59977,3.88473,1102.14,3.57806,42.6271,1100.7,546.723,0,0,0.00120473,0.0001817,-0.0399755,1.59963,-0.00368067,1.60074,0,0
741,0.0404445,-2.50058,-3.596,3.88995,1100.45,3.03107,45.8535,1099.01,552.593,0,0,0.00120473,0.0001817,-0.040447,1.61543,-0.000447661,1.61643,0,0
742,0.0350665,-2.50047,-3.59556,3.89535,1102.18,1.56926,47.8788,1100.77,556.26,0,0,0.00120473,0.0001817,-0.040504,1.62809,0.00191213,1.62895,0,0
743,0.0296885,-2.50037,-3.59512,3.90074,1103.91,0.107423,49.9039,1102.54,559.928,0,0,0.00120473,0.0001817,-0.0405609,1.64075,0.0042718,1.64147,0,0
744,0.0243105,-2.50027,-3.59468,3.90614,1104.53,-1.40757,51.3646,1103.2,563.316,0,0,0.00120473,0.0001817,-0.0405987,1.65002,0.00591472,1.65062,0,0
745,0.0189326,-2.50017,-3.59424,3.91154,1099.95,-3.17333,50.167,1098.65,565.387,0,0,0.00120473,0.0001817,-0.0405459,1.64328,0.00418212,1.64387,0,0
746,0.0135546,-2.50007,-3.5938,3.91693,1095.36,-4.93906,48.9694,1094.09,567.458,0,0,0.00120473,0.0001817,-0.0404931,1.63654,0.0024496,1.63711,0,0
747,0.00817657,-2.49997,-3.59337,3.92233,1096.1,-6.89318,49.2184,1094.78,568.425,0,0,0.00120473,0.0001817,-0.0412988,1.63648,-0.00286956,1.6372,0,0
748,0.00279858,-2.49987,-3.59293,3.92773,1104.87,-9.13169,51.6507,1103.4,567.726,0,0,0.00120473,0.0001817,-0.0434004,1.64652,-0.013603,1.64761,0,0
749,-0.00257941,-2.49977,-3.59249,3.93312,1112.06,-11.1891,53.2619,1110.45,566.706,0,0,0.00120473,0.0001817,-0.0454629,1.65251,-0.0232223,1.65397,0,0
750,-0.0079574,-2.49966,-3.59205,3.93852,1112.43,-12.4623,51.3151,1110.72,564.295,0,0,0.00120473,0.0001817,-0.0473561,1.64102,-0.0280159,1.64271,0,0
751,-0.0133354,-2.49956,-3.59161,3.94392,1112.8,-13.7356,49.3684,1111,561.883,0,0,0.00120473,0.0001817,-0.0492492,1.62952,-0.0328094,1.63145,0,0
752,-0.0187134,-2.49946,-3.59117,3.94932,1113.17,-15.0088,47.4217,1111.27,559.472,0,0,0.00120473,0.0001817,-0.0511424,1.61802,-0.0376029,1.6202,0,0
753,-0.0240914,-2.49936,-3.59073,3.95471,1113.54,-16.282,45.4749,1111.54,557.061,0,0,0.00120473,0.0001817,-0.0530355,1.60652,-0.0423965,1.60894,0,0
754,-0.0294694,-2.49926,-3.59029,3.96011,1113.9,-17.5551,43.528,1111.82,554.65,0,0,0.00120473,0.0001817,-0.0549287,1.59503,-0.0471898,1.59768,0,0
755,-0.0348474,-2.49916,-3.58985,3.96551,1114.27,-18.8284,41.5812,1112.09,552.238,0,0,0.00120473,0.0001817,-0.0568219,1.58353,-0.0519834,1.58643,0,0
756,-0.0402253,-2.49906,-3.58941,3.9709,1114.64,-20.1016,39.6345,1112.37,549.827,0,0,0.00120473,0.0001817,-0.0587151,1.57203,-0.0567769,1.57517,0,0
757,-0.0456033,-2.49896,-3.58897,3.9763,1115.82,-21.4098,38.4208,1113.46,548.141,0,0,0.00120473,0.0001817,-0.0601696,1.56575,-0.0598243,1.56905,0,0
758,-0.0509813,-2.49885,-3.58853,3.9817,1118.47,-22.7822,38.5519,1116.06,547.784,0,0,0.00120473,0.0001817,-0.060819,1.56904,-0.0596674,1.57235,0,0
759,-0.0563593,-2.49875,-3.58809,3.98709,1118.98,-22.7704,39.6897,1116.52,553.151,0,0,0.00120473,0.0001817,-0.061813,1.57514,-0.0588488,1.57845,0,0
760,-0.0617373,-2.49865,-3.58765,3.99249,1118.72,-22.2562,41.1931,1116.19,560.596,0,0,0.00120473,0.0001817,-0.0629318,1.58227,-0.0577903,1.58557,0,0
761,-0.0671153,-2.49855,-3.58721,3.99789,1118.47,-21.7419,42.6967,1115.87,568.041,0,0,0.00120473,0.0001817,-0.0640507,1.5894,-0.0567317,1.59269,0,0
762,-0.0698668,-2.49856,-3.59025,4.00199,1123.03,-22.7337,41.6359,1120.46,565.522,0,0,0.00120473,0.0001817,-0.063621,1.58885,-0.0559187,1.59208,0,0
763,-0.0726182,-2.49856,-3.59329,4.00609,1127.59,-23.7254,40.5748,1125.04,563.004,0,0,0.00120473,0.0001817,-0.0631914,1.5883,-0.0551054,1.59147,0,0
764,-0.0753697,-2.49857,-3.59633,4.01019,1132.16,-24.7173,39.514,1129.62,560.486,0,0,0.00120473,0.0001817,-0.0627617,1.58775,-0.0542924,1.59086,0,0
765,-0.0781211,-2.49857,-3.59937,4.01429,1136.73,-25.7091,38.4532,1134.21,557.967,0,0,0.00120473,0.0001817,-0.0623321,1.58721,-0.0534793,1.59025,0,0
766,-0.0808726,-2.49858,-3.60241,4.01839,1141.29,-26.701,37.3923,1138.8,555.448,0,0,0.00120473,0.0001817,-0.0619024,1.58666,-0.0526663,1.58964,0,0
767,-0.0836241,-2.49858,-3.60545,4.02249,1145.85,-27.6926,36.3313,1143.38,552.93,0,0,0.00120473,0.0001817,-0.0614728,1.58611,-0.051853,1.58903,0,0
768,-0.0863755,-2.49859,-3.60849,4.02659,1150.42,-28.6845,35.2706,1147.97,550.412,0,0,0.00120473,0.0001817,-0.0610432,1.58556,-0.0510399,1.58842,0,0
769,-0.089127,-2.49859,-3.61153,4.03069,1154.99,-29.6763,34.2098,1152.55,547.894,0,0,0.00120473,0.0001817,-0.0606135,1.58502,-0.0502269,1.58781,0,0
770,-0.0918785,-2.4986,-3.61457,4.03479,1159.55,-30.668,33.1487,1157.13,545.375,0,0,0.00120473,0.0001817,-0.0601839,1.58447,-0.0494136,1.58721,0,0
771,-0.0946299,-2.4986,-3.61761,4.03889,1164.11,-31.6598,32.0879,1161.72,542.857,0,0,0.00120473,0.0001817,-0.0597542,1.58392,-0.0486005,1.5866,0,0
772,-0.0973814,-2.49861,-3.62065,4.04299,1168.68,-32.6517,31.0271,1166.31,540.339,0,0,0.00120473,0.0001817,-0.0593246,1.58338,-0.0477875,1.58599,0,0
773,-0.100133,-2.49861,-3.62369,4.04709,1173.24,-33.6434,29.966,1170.89,537.82,0,0,0.00120473,0.0001817,-0.0588949,1.58283,-0.0469742,1.58538,0,0
774,-0.102884,-2.49862,-3.62673,4.05119,1177.81,-34.6352,28.9052,1175.48,535.302,0,0,0.00120473,0.0001817,-0.0584653,1.58228,-0.0461611,1.58477,0,0
775,-0.105636,-2.49863,-3.62977,4.05529,1182.37,-35.627,27.8444,1180.06,532.783,0,0,0.00120473,0.0001817,-0.0580356,1.58173,-0.0453481,1.58416,0,0
776,-0.108387,-2.49863,-3.63281,4.05939,1186.94,-36.6187,26.7835,1184.64,530.266,0,0,0.00120473,0.0001817,-0.0576061,1.58119,-0.0445348,1.58355,0,0
777,-0.111139,-2.49864,-3.63585,4.06349,1191.5,-37.6106,25.7225,1189.23,527.747,0,0,0.00120473,0.0001817,-0.0571764,1.58064,-0.0437218,1.58294,0,0
778,-0.11389,-2.49864,-3.63889,4.06759,1196.07,-38.6024,24.6617,1193.82,525.228,0,0,0.00120473,0.0001817,-0.0567467,1.58009,-0.0429087,1.58233,0,0
779,-0.116642,-2.49865,-3.64193,4.07169,1200.63,-39.5942,23.601,1198.4,522.71,0,0,0.00120473,0.0001817,-0.0563171,1.57954,-0.0420957,1.58172,0,0
780,-0.119393,-2.49865,-3.64497,4.07579,1205.2,-40.586,22.5399,1202.99,520.192,0,0,0.00120473,0.0001817,-0.0558874,1.579,-0.0412824,1.58111,0,0
781,-0.122145,-2.49866,-3.64801,4.0799,1209.76,-41.5778,21.4791,1207.57,517.673,0,0,0.00120473,0.0001817,-0.0554578,1.57845,-0.0404693,1.5805,0,0
782,-0.122592,-2.49874,-3.65298,4.08488,1216.94,-43.4577,18.8002,1214.82,508.599,0,0,0.00120473,0.0001817,-0.0540156,1.57262,-0.0399652,1.57458,0,0
783,-0.123039,-2.49882,-3.65794,4.08987,1224.11,-45.3376,16.1212,1222.08,499.523,0,0,0.00120473,0.0001817,-0.0525733,1.56678,-0.0394611,1.56866,0,0
784,-0.123487,-2.49889,-3.66291,4.09486,1231.29,-47.2176,13.4422,1229.33,490.448,0,0,0.00120473,0.0001817,-0.051131,1.56095,-0.0389569,1.56274,0,0
785,-0.123934,-2.49897,-3.66788,4.09984,1238.47,-49.0975,10.7634,1236.58,481.374,0,0,0.00120473,0.0001817,-0.0496888,1.55512,-0.0384528,1.55682,0,0
786,-0.124382,-2.49905,-3.67284,4.10483,1245.48,-50.8747,8.1592,1243.67,472.723,0,0,0.00120473,0.0001817,-0.0482721,1.54949,-0.0378996,1.55111,0,0
787,-0.124829,-2.49913,-3.67781,4.10982,1250.73,-51.5074,6.38741,1248.99,468.805,0,0,0.00120473,0.0001817,-0.0471401,1.5462,-0.0367994,1.54771,0,0
788,-0.125277,-2.49921,-3.68277,4.1148,1255.98,-52.1402,4.61562,1254.31,464.887,0,0,0.00120473,0.0001817,-0.0460081,1.54291,-0.0356991,1.54431,0,0
789,-0.125724,-2.49929,-3.68774,4.11979,1261.23,-52.7729,2.84392,1259.63,460.97,0,0,0.00120473,0.0001817,-0.0448761,1.53961,-0.0345989,1.54091,0,0
790,-0.126171,-2.49937,-3.69271,4.12478,1266.48,-53.4056,1.07221,1264.94,457.052,0,0,0.00120473,0.0001817,-0.0437442,1.53632,-0.0334987,1.53751,0,0
791,-0.126619,-2.49945,-3.69767,4.12976,1271.73,-54.0384,-0.699358,1270.26,453.134,0,0,0.00120473,0.0001817,-0.0426121,1.53302,-0.0323987,1.53411,0,0
792,-0.127066,-2.49953,-3.70264,4.13475,1276.98,-54.6712,-2.47115,1275.58,449.216,0,0,0.00120473,0.0001817,-0.0414801,1.52973,-0.0312984,1.53071,0,0
793,-0.127514,-2.49961,-3.7076,4.13974,1281.13,-55.2139,-4.69227,1279.81,445.161,0,0,0.00120473,0.0001817,-0.040181,1.52374,-0.0297512,1.52461,0,0
794,-0.127961,-2.49969,-3.71257,4.14472,1284.37,-55.6274,-6.40022,1283.06,441.711,0,0,0.00120473,0.0001817,-0.0398771,1.52316,-0.0288566,1.52398,0,0
795,-0.128409,-2.49976,-3.71754,4.14971,1288.72,-56.2096,-7.55826,1287.38,437.647,0,0,0.00120473,0.0001817,-0.0397964,1.52671,-0.0294704,1.52754,0,0
796,-0.128856,-2.49984,-3.7225,4.1547,1293.07,-56.7918,-8.7163,1291.7,433.583,0,0,0.00120473,0.0001817,-0.0397158,1.53025,-0.0300842,1.5311,0,0
797,-0.129303,-2.49992,-3.72747,4.15969,1297.43,-57.374,-9.87429,1296.03,429.52,0,0,0.00120473,0.0001817,-0.0396351,1.53379,-0.030698,1.53465,0,0
798,-0.129751,-2.5,-3.73244,4.16467,1301.54,-57.9516,-11.0402,1300.11,425.404,0,0,0.00120473,0.0001817,-0.0395541,1.53708,-0.0312138,1.53796,0,0
799,-0.130198,-2.50008,-3.7374,4.16966,1305.11,-58.5181,-12.2253,1303.64,421.161,0,0,0.00120473,0.0001817,-0.0394724,1.53979,-0.0314936,1.54069,0,0
800,-0.130646,-2.50016,-3.74237,4.17465,1310.01,-58.5054,-12.5231,1305.75,416.888,0,0,0.00120473,0.0001817,-0.0396859,1.53595,-0.0306367,1.53689,0,0
801,-0.131093,-2.50024,-3.74733,4.17963,1314.21,-58.5045,-13.0089,1307.91,412.616,0,0,0.00120473,0.0001817,-0.0399567,1.53361,-0.029608,1.53459,0,0
802,-0.127734,-2.50038,-3.75217,4.18552,1316.18,-57.9361,-13.7635,1308.76,408.863,0,0,0.00120473,0.0001817,-0.0395224,1.53176,-0.029905,1.53276,0,0
803,-0.124375,-2.50053,-3.75701,4.19141,1318.15,-57.3676,-14.5181,1309.62,405.11,0,0,0.00120473,0.0001817,-0.0390881,1.5299,-0.0302019,1.53093,0,0
804,-0.121016,-2.50067,-3.76184,4.1973,1320.12,-56.7992,-15.2727,1310.47,401.356,0,0,0.00120473,0.0001817,-0.0386537,1.52805,-0.0304989,1.5291,0,0
805,-0.117657,-2.50081,-3.76668,4.20319,1322.08,-56.2308,-16.0273,1311.32,397.603,0,0,0.00120473,0.0001817,-0.0382194,1.52619,-0.0307958,1.52728,0,0
806,-0.114298,-2.50096,-3.77151,4.20908,1324.05,-55.6623,-16.7819,1312.17,393.85,0,0,0.00120473,0.0001817,-0.0377851,1.52434,-0.0310928,1.52545,0,0
807,-0.110939,-2.5011,-3.77635,4.21497,1326.02,-55.0938,-17.5365,1313.02,390.096,0,0,0.00120473,0.0001817,-0.0373507,1.52248,-0.0313896,1.52362,0,0
808,-0.10758,-2.50124,-3.78118,4.22086,1327.99,-54.5254,-18.2911,1313.88,386.343,0,0,0.00120473,0.0001817,-0.0369164,1.52063,-0.0316865,1.52179,0,0
809,-0.104221,-2.50138,-3.78602,4.22675,1329.96,-53.9569,-19.0457,1314.73,382.589,0,0,0.00120473,0.0001817,-0.0364821,1.51878,-0.0319835,1.51996,0,0
810,-0.100862,-2.50153,-3.79086,4.23264,1331.93,-53.3885,-19.8003,1315.58,378.836,0,0,0.00120473,0.0001817,-0.0360478,1.51692,-0.0322804,1.51814,0,0
811,-0.0975031,-2.50167,-3.79569,4.23853,1333.9,-52.8201,-20.5549,1316.43,375.083,0,0,0.00120473,0.0001817,-0.0356134,1.51507,-0.0325774,1.51631,0,0
812,-0.0941441,-2.50181,-3.80053,4.24442,1335.87,-52.2516,-21.3095,1317.29,371.329,0,0,0.00120473,0.0001817,-0.0351791,1.51321,-0.0328743,1.51448,0,0
813,-0.0907851,-2.50196,-3.80536,4.25031,1337.83,-51.6832,-22.0641,1318.14,367.576,0,0,0.00120473,0.0001817,-0.0347448,1.51136,-0.0331713,1.51265,0,0
814,-0.0874261,-2.5021,-3.8102,4.2562,1339.8,-51.1147,-22.8188,1318.99,363.823,0,0,0.00120473,0.0001817,-0.0343104,1.5095,-0.0334682,1.51083,0,0
815,-0.0840671,-2.50224,-3.81503,4.26209,1341.77,-50.5463,-23.5734,1319.84,360.069,0,0,0.00120473,0.0001817,-0.0338761,1.50765,-0.0337652,1.509,0,0
816,-0.0807081,-2.50239,-3.81987,4.26798,1343.74,-49.9778,-24.3279,1320.69,356.316,0,0,0.00120473,0.0001817,-0.0334418,1.50579,-0.034062,1.50717,0,0
817,-0.0773491,-2.50253,-3.82471,4.27387,1345.71,-49.4093,-25.0825,1321.55,352.562,0,0,0.00120473,0.0001817,-0.0330074,1.50394,-0.0343589,1.50534,0,0
818,-0.0739902,-2.50267,-3.82954,4.27976,1347.68,-48.8409,-25.8371,1322.4,348.809,0,0,0.00120473,0.0001817,-0.0325731,1.50209,-0.0346559,1.50351,0,0
819,-0.0706312,-2.50282,-3.83438,4.28565,1349.65,-48.2725,-26.5917,1323.25,345.056,0,0,0.00120473,0.0001817,-0.0321388,1.50023,-0.0349529,1.50169,0,0
820,-0.0672722,-2.50296,-3.83921,4.29154,1351.62,-47.704,-27.3463,1324.1,341.303,0,0,0.00120473,0.0001817,-0.0317045,1.49838,-0.0352498,1.49986,0,0
821,-0.0639132,-2.5031,-3.84405,4.29743,1353.58,-47.1356,-28.101,1324.96,337.549,0,0,0.00120473,0.0001817,-0.0312701,1.49652,-0.0355467,1.49803,0,0
822,-0.0601747,-2.50319,-3.84528,4.30136,1352.48,-46.5596,-28.5072,1324.23,336.901,0,0,0.00120473,0.0001817,-0.0306292,1.49637,-0.0366089,1.49788,0,0
823,-0.0564362,-2.50327,-3.84651,4.3053,1351.37,-45.9836,-28.9133,1323.5,336.253,0,0,0.00120473,0.0001817,-0.0299883,1.49622,-0.037671,1.49773,0,0
824,-0.0526977,-2.50336,-3.84775,4.30924,1350.26,-45.4075,-29.3194,1322.76,335.605,0,0,0.00120473,0.0001817,-0.0293473,1.49606,-0.038733,1.49757,0,0
825,-0.0489592,-2.50345,-3.84898,4.31318,1349.15,-44.8316,-29.7256,1322.03,334.956,0,0,0.00120473,0.0001817,-0.0287064,1.49591,-0.0397951,1.49742,0,0
826,-0.0452207,-2.50353,-3.85021,4.31711,1348.05,-44.2556,-30.1318,1321.3,334.308,0,0,0.00120473,0.0001817,-0.0280655,1.49575,-0.0408573,1.49727,0,0
827,-0.0414822,-2.50362,-3.85144,4.32105,1346.94,-43.6795,-30.5379,1320.57,333.66,0,0,0.00120473,0.0001817,-0.0274245,1.4956,-0.0419192,1.49712,0,0
828,-0.0377438,-2.50371,-3.85268,4.32499,1345.83,-43.1035,-30.9441,1319.84,333.012,0,0,0.00120473,0.0001817,-0.0267836,1.49544,-0.0429814,1.49696,0,0
829,-0.0340053,-2.50379,-3.85391,4.32892,1344.72,-42.5275,-31.3503,1319.11,332.364,0,0,0.00120473,0.0001817,-0.0261426,1.49529,-0.0440435,1.49681,0,0
830,-0.0302668,-2.50388,-3.85514,4.33286,1343.62,-41.9516,-31.7565,1318.38,331.716,0,0,0.00120473,0.0001817,-0.0255017,1.49514,-0.0451056,1.49666,0,0
831,-0.0265283,-2.50397,-3.85637,4.3368,1336.44,-41.5044,-33.8084,1318.12,331.081,0,0,0.00120473,0.0001817,-0.0253348,1.50813,-0.0447607,1.50957,0,0
832,-0.0227898,-2.50405,-3.85761,4.34074,1329.1,-41.0605,-35.9033,1317.87,330.447,0,0,0.00120473,0.0001817,-0.0251804,1.52147,-0.0443788,1.52283,0,0
833,-0.0190513,-2.50414,-3.85884,4.34467,1321.76,-40.6167,-37.9983,1317.62,329.813,0,0,0.00120473,0.0001817,-0.0250259,1.53481,-0.0439971,1.53608,0,0
834,-0.0153128,-2.50423,-3.86007,4.34861,1318.03,-39.9216,-38.9467,1316.68,329.162,0,0,0.00120473,0.0001817,-0.0247158,1.53916,-0.043995,1.5404,0,0
835,-0.0115743,-2.50431,-3.8613,4.35255,1316.62,-39.066,-39.1629,1315.29,328.501,0,0,0.00120473,0.0001817,-0.0243061,1.53777,-0.044235,1.53901,0,0
836,-0.00783585,-2.5044,-3.86254,4.35649,1316.45,-38.187,-39.0986,1314.12,327.826,0,0,0.00120473,0.0001817,-0.0238224,1.53395,-0.0448173,1.53519,0,0
837,-0.00409736,-2.50449,-3.86377,4.36042,1328.43,-37.0795,-36.2897,1315.13,327.023,0,0,0.00120473,0.0001817,-0.0226137,1.50636,-0.0487472,1.50755,0,0
838,-0.00035887,-2.50457,-3.865,4.36436,1340.41,-35.972,-33.4808,1316.14,326.22,0,0,0.00120473,0.0001817,-0.0214049,1.47877,-0.052677,1.47992,0,0
839,0.00337962,-2.50466,-3.86623,4.3683,1339.54,-35.0781,-33.0462,1313.59,324.41,0,0,0.00120473,0.0001817,-0.0207349,1.4797,-0.0525089,1.48082,0,0
840,0.00711811,-2.50475,-3.86747,4.37224,1336.29,-34.2238,-33.0522,1310.37,322.412,0,0,0.00120473,0.0001817,-0.0201647,1.48592,-0.0515801,1.48702,0,0
841,0.0108566,-2.50483,-3.8687,4.37617,1333.04,-33.3695,-33.0583,1307.15,320.415,0,0,0.00120473,0.0001817,-0.0195946,1.49215,-0.0506514,1.49321,0,0
842,0.0130569,-2.50484,-3.86668,4.37916,1328.96,-32.6257,-32.511,1303.44,321.599,0,0,0.00120473,0.0001817,-0.0193582,1.49501,-0.049864,1.49605,0,0
843,0.0152572,-2.50484,-3.86467,4.38214,1324.88,-31.8818,-31.9637,1299.73,322.784,0,0,0.00120473,0.0001817,-0.0191218,1.49787,-0.0490765,1.49889,0,0
844,0.0174576,-2.50484,-3.86266,4.38512,1320.8,-31.138,-31.4166,1296.02,323.969,0,0,0.00120473,0.0001817,-0.0188854,1.50073,-0.0482892,1.50173,0,0
845,0.0196579,-2.50485,-3.86064,4.3881,1316.72,-30.3942,-30.8693,1292.31,325.154,0,0,0.00120473,0.0001817,-0.0186489,1.50359,-0.0475018,1.50457,0,0
846,0.0218582,-2.50485,-3.85863,4.39109,1312.64,-29.6504,-30.3221,1288.6,326.338,0,0,0.00120473,0.0001817,-0.0184125,1.50645,-0.0467144,1.50741,0,0
847,0.0240585,-2.50485,-3.85661,4.39407,1308.56,-28.9065,-29.7748,1284.88,327.523,0,0,0.00120473,0.0001817,-0.0181761,1.50931,-0.045927,1.51024,0,0
848,0.0262588,-2.50485,-3.8546,4.39705,1304.48,-28.1627,-29.2275,1281.17,328.708,0,0,0.00120473,0.0001817,-0.0179396,1.51217,-0.0451396,1.51308,0,0
849,0.0284592,-2.50486,-3.85259,4.40003,1300.4,-27.4189,-28.6803,1277.46,329.893,0,0,0.00120473,0.0001817,-0.0177032,1.51503,-0.0443522,1.51592,0,0
850,0.0306595,-2.50486,-3.85057,4.40302,1296.32,-26.675,-28.133,1273.75,331.078,0,0,0.00120473,0.0001817,-0.0174668,1.51789,-0.0435648,1.51876,0,0
851,0.0328598,-2.50486,-3.84856,4.406,1292.24,-25.9312,-27.5858,1270.04,332.262,0,0,0.00120473,0.0001817,-0.0172304,1.52075,-0.0427774,1.5216,0,0
852,0.0350601,-2.50487,-3.84655,4.40898,1288.16,-25.1874,-27.0385,1266.33,333.447,0,0,0.00120473,0.0001817,-0.0169939,1.5236,-0.04199,1.52444,0,0
853,0.0372604,-2.50487,-3.84453,4.41197,1284.07,-24.4435,-26.4912,1262.61,334.632,0,0,0.00120473,0.0001817,-0.0167575,1.52646,-0.0412026,1.52727,0,0
854,0.0394608,-2.50487,-3.84252,4.41495,1280,-23.6997,-25.9441,1258.9,335.817,0,0,0.00120473,0.0001817,-0.0165211,1.52932,-0.0404153,1.53011,0,0
855,0.0416611,-2.50488,-3.8405,4.41793,1275.92,-22.9559,-25.3968,1255.19,337.001,0,0,0.00120473,0.0001817,-0.0162846,1.53218,-0.0396279,1.53295,0,0
856,0.0438614,-2.50488,-3.83849,4.42091,1271.83,-22.212,-24.8495,1251.48,338.186,0,0,0.00120473,0.0001817,-0.0160482,1.53504,-0.0388404,1.53579,0,0
857,0.0460617,-2.50488,-3.83648,4.4239,1267.75,-21.4682,-24.3023,1247.77,339.371,0,0,0.00120473,0.0001817,-0.0158118,1.5379,-0.038053,1.53863,0,0
858,0.048262,-2.50489,-3.83446,4.42688,1263.67,-20.7243,-23.755,1244.06,340.556,0,0,0.00120473,0.0001817,-0.0155753,1.54076,-0.0372656,1.54146,0,0
859,0.0504624,-2.50489,-3.83245,4.42986,1259.59,-19.9806,-23.2079,1240.35,341.74,0,0,0.00120473,0.0001817,-0.0153389,1.54362,-0.0364783,1.5443,0,0
860,0.0526627,-2.50489,-3.83044,4.43284,1255.51,-19.2367,-22.6605,1236.63,342.925,0,0,0.00120473,0.0001817,-0.0151025,1.54648,-0.0356909,1.54714,0,0
861,0.054863,-2.50489,-3.82842,4.43583,1251.43,-18.4929,-22.1133,1232.92,344.11,0,0,0.00120473,0.0001817,-0.0148661,1.54934,-0.0349035,1.54998,0,0
862,0.0554475,-2.50484,-3.82472,4.43958,1247.84,-18.0166,-21.331,1229.83,347.154,0,0,0.00120473,0.0001817,-0.0149179,1.54917,-0.0344159,1.5498,0,0
863,0.0560319,-2.50479,-3.82102,4.44332,1244.26,-17.5402,-20.5486,1226.75,350.199,0,0,0.00120473,0.0001817,-0.0149697,1.549,-0.0339283,1.54962,0,0
864,0.0566164,-2.50473,-3.81731,4.44707,1240.67,-17.0639,-19.7662,1223.66,353.243,0,0,0.00120473,0.0001817,-0.0150215,1.54883,-0.0334407,1.54943,0,0
865,0.0572009,-2.50468,-3.81361,4.45082,1237.08,-16.5876,-18.9839,1220.57,356.287,0,0,0.00120473,0.0001817,-0.0150733,1.54867,-0.0329532,1.54925,0,0
866,0.0577854,-2.50462,-3.80991,4.45457,1233.49,-16.1112,-18.2015,1217.48,359.332,0,0,0.00120473,0.0001817,-0.0151251,1.5485,-0.0324656,1.54907,0,0
867,0.0583698,-2.50457,-3.80621,4.45832,1229.9,-15.635,-17.4193,1214.4,362.376,0,0,0.00120473,0.0001817,-0.0151769,1.54833,-0.0319781,1.54889,0,0
868,0.0589543,-2.50451,-3.80251,4.46207,1226.31,-15.1587,-16.637,1211.31,365.42,0,0,0.00120473,0.0001817,-0.0152287,1.54816,-0.0314905,1.54871,0,0
869,0.0595388,-2.50446,-3.7988,4.46582,1222.72,-14.6823,-15.8546,1208.22,368.465,0,0,0.00120473,0.0001817,-0.0152805,1.54799,-0.0310029,1.54853,0,0
870,0.0601232,-2.5044,-3.7951,4.46957,1219.13,-14.206,-15.0722,1205.13,371.509,0,0,0.00120473,0.0001817,-0.0153323,1.54782,-0.0305154,1.54834,0,0
871,0.0607077,-2.50435,-3.7914,4.47331,1215.54,-13.7297,-14.2899,1202.04,374.553,0,0,0.00120473,0.0001817,-0.0153842,1.54765,-0.0300278,1.54816,0,0
872,0.0612922,-2.50429,-3.7877,4.47706,1211.95,-13.2534,-13.5076,1198.96,377.598,0,0,0.00120473,0.0001817,-0.015436,1.54748,-0.0295402,1.54798,0,0
873,0.0618767,-2.50424,-3.78399,4.48081,1208.37,-12.777,-12.7252,1195.87,380.642,0,0,0.00120473,0.0001817,-0.0154878,1.54731,-0.0290526,1.5478,0,0
874,0.0624611,-2.50418,-3.78029,4.48456,1204.78,-12.3007,-11.9428,1192.78,383.686,0,0,0.00120473,0.0001817,-0.0155396,1.54715,-0.028565,1.54762,0,0
875,0.0630456,-2.50413,-3.77659,4.48831,1201.19,-11.8244,-11.1605,1189.69,386.731,0,0,0.00120473,0.0001817,-0.0155914,1.54698,-0.0280775,1.54743,0,0
876,0.0636301,-2.50408,-3.77289,4.49206,1193.15,-11.3554,-11.4918,1187.26,389.907,0,0,0.00120473,0.0001817,-0.0165836,1.55525,-0.0283858,1.55572,0,0
877,0.0642145,-2.50402,-3.76918,4.49581,1185.88,-10.9011,-11.9564,1185.63,393.147,0,0,0.00120473,0.0001817,-0.0178622,1.5631,-0.0281259,1.56361,0,0
878,0.064799,-2.50397,-3.76548,4.49955,1184.57,-10.4577,-11.3464,1184.32,396.321,0,0,0.00120473,0.0001817,-0.0184592,1.56096,-0.0262361,1.5615,0,0
879,0.0653835,-2.50391,-3.76178,4.5033,1183.26,-10.0143,-10.7363,1183.02,399.495,0,0,0.00120473,0.0001817,-0.0190561,1.55882,-0.0243462,1.55939,0,0
880,0.065968,-2.50386,-3.75808,4.50705,1181.95,-9.57097,-10.1263,1181.71,402.669,0,0,0.00120473,0.0001817,-0.0196531,1.55667,-0.0224565,1.55727,0,0
881,0.0665524,-2.5038,-3.75437,4.5108,1180.64,-9.1276,-9.5163,1180.4,405.843,0,0,0.00120473,0.0001817,-0.02025,1.55453,-0.0205667,1.55516,0,0
882,0.0648093,-2.50372,-3.75123,4.5144,1180.91,-9.30868,-9.00866,1180.68,409.023,0,0,0.00120473,0.0001817,-0.0207332,1.55004,-0.0203485,1.55068,0,0
883,0.0630661,-2.50363,-3.74808,4.518,1181.19,-9.48983,-8.50103,1180.96,412.204,0,0,0.00120473,0.0001817,-0.0212162,1.54554,-0.0201303,1.5462,0,0
884,0.061323,-2.50355,-3.74493,4.5216,1181.47,-9.67091,-7.99339,1181.24,415.385,0,0,0.00120473,0.0001817,-0.0216994,1.54105,-0.0199121,1.54173,0,0
885,0.0595798,-2.50346,-3.74179,4.5252,1181.74,-9.85199,-7.48576,1181.52,418.565,0,0,0.00120473,0.0001817,-0.0221826,1.53655,-0.0196939,1.53725,0,0
886,0.0578367,-2.50337,-3.73864,4.52879,1182.02,-10.0331,-6.97813,1181.8,421.746,0,0,0.00120473,0.0001817,-0.0226658,1.53206,-0.0194757,1.53277,0,0
887,0.0560936,-2.50329,-3.73549,4.53239,1182.29,-10.2142,-6.47053,1182.08,424.926,0,0,0.00120473,0.0001817,-0.023149,1.52756,-0.0192575,1.5283,0,0
888,0.0543504,-2.5032,-3.73234,4.53599,1182.57,-10.3953,-5.96286,1182.36,428.107,0,0,0.00120473,0.0001817,-0.0236321,1.52307,-0.0190393,1.52382,0,0
889,0.0526073,-2.50312,-3.7292,4.53959,1182.85,-10.5764,-5.45522,1182.64,431.288,0,0,0.00120473,0.0001817,-0.0241153,1.51857,-0.0188211,1.51934,0,0
890,0.0508641,-2.50303,-3.72605,4.54319,1183.12,-10.7575,-4.94763,1182.92,434.469,0,0,0.00120473,0.0001817,-0.0245984,1.51408,-0.018603,1.51486,0,0
891,0.049121,-2.50295,-3.7229,4.54679,1183.4,-10.9386,-4.43995,1183.2,437.649,0,0,0.00120473,0.0001817,-0.0250816,1.50959,-0.0183847,1.51039,0,0
892,0.0473778,-2.50286,-3.71976,4.55039,1183.67,-11.1197,-3.93232,1183.48,440.83,0,0,0.00120473,0.0001817,-0.0255648,1.50509,-0.0181665,1.50591,0,0
893,0.0456347,-2.50278,-3.71661,4.55398,1183.95,-11.3008,-3.42472,1183.75,444.011,0,0,0.00120473,0.0001817,-0.0260479,1.5006,-0.0179484,1.50143,0,0
894,0.0438916,-2.50269,-3.71346,4.55758,1184.23,-11.4819,-2.91709,1184.03,447.191,0,0,0.00120473,0.0001817,-0.0265311,1.4961,-0.0177302,1.49696,0,0
895,0.0421484,-2.50261,-3.71031,4.56118,1184.5,-11.6629,-2.40945,1184.31,450.372,0,0,0.00120473,0.0001817,-0.0270143,1.49161,-0.017512,1.49248,0,0
896,0.0404053,-2.50252,-3.70717,4.56478,1184.78,-11.8441,-1.90182,1184.59,453.553,0,0,0.00120473,0.0001817,-0.0274974,1.48711,-0.0172938,1.488,0,0
897,0.0386621,-2.50244,-3.70402,4.56838,1184.33,-11.9558,-1.59728,1184.11,457.169,0,0,0.00120473,0.0001817,-0.0277156,1.4842,-0.0193105,1.48513,0,0
898,0.036919,-2.50235,-3.70087,4.57198,1183.24,-11.9181,-0.773002,1182.97,459.928,0,0,0.00120473,0.0001817,-0.028,1.48138,-0.0216816,1.48234,0,0
899,0.0351758,-2.50226,-3.69773,4.57558,1182.16,-11.8805,0.0514778,1181.84,462.687,0,0,0.00120473,0.0001817,-0.0282844,1.47856,-0.0240523,1.47955,0,0
900,0.0334327,-2.50218,-3.69458,4.57917,1181.07,-11.8428,0.875697,1180.7,465.447,0,0,0.00120473,0.0001817,-0.0285689,1.47574,-0.0264232,1.47677,0,0
901,0.0316896,-2.50209,-3.69143,4.58277,1179.98,-11.8052,1.69998,1179.56,468.206,0,0,0.00120473,0.0001817,-0.0288533,1.47293,-0.0287943,1.47398,0,0
902,0.0282488,-2.50201,-3.69025,4.58641,1181.23,-12.483,1.93408,1180.78,469.966,0,0,0.00120473,0.0001817,-0.028886,1.46878,-0.031732,1.46984,0,0
903,0.0248079,-2.50193,-3.68906,4.59005,1182.47,-13.1609,2.16817,1182.01,471.725,0,0,0.00120473,0.0001817,-0.0289186,1.46463,-0.0346697,1.46569,0,0
904,0.0213671,-2.50185,-3.68787,4.59369,1183.51,-13.8721,2.76143,1183.03,473.827,0,0,0.00120473,0.0001817,-0.0289784,1.46376,-0.0364762,1.46481,0,0
905,0.0179263,-2.50177,-3.68669,4.59733,1183.88,-14.6939,4.54411,1183.41,477.062,0,0,0.00120473,0.0001817,-0.0291278,1.47377,-0.0345364,1.47472,0,0
906,0.0144855,-2.50169,-3.6855,4.60097,1184.24,-15.5156,6.32674,1183.79,480.298,0,0,0.00120473,0.0001817,-0.0292773,1.48377,-0.0325966,1.48463,0,0
907,0.0110447,-2.50161,-3.68431,4.60462,1184.6,-16.3374,8.10937,1184.16,483.533,0,0,0.00120473,0.0001817,-0.0294268,1.49378,-0.0306569,1.49454,0,0
908,0.00760393,-2.50153,-3.68313,4.60826,1184,-17.2511,9.27057,1183.57,486.274,0,0,0.00120473,0.0001817,-0.0296383,1.49983,-0.0300636,1.50055,0,0
909,0.00416312,-2.50145,-3.68194,4.6119,1184.47,-18.0918,9.01139,1183.97,485.785,0,0,0.00120473,0.0001817,-0.030997,1.49672,-0.0336563,1.49761,0,0
910,0.000722319,-2.50137,-3.68076,4.61554,1183.96,-18.8199,8.2411,1183.39,485.097,0,0,0.00120473,0.0001817,-0.0323313,1.4911,-0.0365557,1.49215,0,0
911,-0.00271849,-2.50129,-3.67957,4.61918,1183.46,-19.548,7.47102,1182.82,484.409,0,0,0.00120473,0.0001817,-0.0336656,1.48548,-0.0394554,1.48668,0,0
912,-0.00615929,-2.50121,-3.67838,4.62282,1183,-20.2783,6.74669,1182.29,483.766,0,0,0.00120473,0.0001817,-0.0349724,1.48018,-0.042245,1.48153,0,0
913,-0.00960009,-2.50113,-3.6772,4.62646,1183.79,-21.0625,7.15303,1183.03,484.241,0,0,0.00120473,0.0001817,-0.0356025,1.48293,-0.0423413,1.48431,0,0
914,-0.0130409,-2.50105,-3.67601,4.6301,1184.58,-21.8468,7.55938,1183.77,484.717,0,0,0.00120473,0.0001817,-0.0362326,1.48568,-0.0424375,1.48709,0,0
915,-0.0164817,-2.50097,-3.67482,4.63374,1185.37,-22.631,7.96572,1184.51,485.192,0,0,0.00120473,0.0001817,-0.0368627,1.48843,-0.0425338,1.48987,0,0
916,-0.0199225,-2.50088,-3.67364,4.63738,1186.15,-23.4152,8.37206,1185.25,485.667,0,0,0.00120473,0.0001817,-0.0374928,1.49117,-0.04263,1.49265,0,0
917,-0.0233633,-2.5008,-3.67245,4.64102,1186.94,-24.1994,8.7784,1185.99,486.143,0,0,0.00120473,0.0001817,-0.0381229,1.49392,-0.0427263,1.49542,0,0
918,-0.0268041,-2.50072,-3.67126,4.64466,1187.73,-24.9837,9.18488,1186.74,486.618,0,0,0.00120473,0.0001817,-0.038753,1.49667,-0.0428227,1.4982,0,0
919,-0.0302449,-2.50064,-3.67008,4.6483,1188.52,-25.768,9.59122,1187.48,487.093,0,0,0.00120473,0.0001817,-0.0393831,1.49942,-0.0429189,1.50098,0,0
920,-0.0336857,-2.50056,-3.66889,4.65194,1189.31,-26.5522,9.99756,1188.22,487.569,0,0,0.00120473,0.0001817,-0.0400132,1.50217,-0.0430152,1.50376,0,0
921,-0.0371265,-2.50048,-3.66771,4.65558,1190.09,-27.3364,10.4039,1188.96,488.044,0,0,0.00120473,0.0001817,-0.0406433,1.50492,-0.0431114,1.50653,0,0
922,-0.0380239,-2.5005,-3.66966,4.65773,1192.57,-27.7755,9.7034,1191.46,486.409,0,0,0.00120473,0.0001817,-0.0402711,1.50402,-0.0426447,1.5056,0,0
923,-0.0389212,-2.50052,-3.67161,4.65988,1195.05,-28.2146,9.00291,1193.96,484.774,0,0,0.00120473,0.0001817,-0.0398989,1.50312,-0.042178,1.50466,0,0
924,-0.0398185,-2.50054,-3.67357,4.66203,1197.53,-28.6537,8.30249,1196.46,483.139,0,0,0.00120473,0.0001817,-0.0395267,1.50222,-0.0417113,1.50372,0,0
925,-0.0407159,-2.50056,-3.67552,4.66418,1200.01,-29.0928,7.602,1198.96,481.504,0,0,0.00120473,0.0001817,-0.0391545,1.50133,-0.0412446,1.50278,0,0
926,-0.0416132,-2.50057,-3.67747,4.66633,1202.5,-29.532,6.90172,1201.47,479.869,0,0,0.00120473,0.0001817,-0.0387822,1.50043,-0.0407781,1.50185,0,0
927,-0.0425105,-2.50059,-3.67943,4.66848,1204.98,-29.9711,6.2013,1203.97,478.234,0,0,0.00120473,0.0001817,-0.03841,1.49953,-0.0403114,1.50091,0,0
928,-0.0434079,-2.50061,-3.68138,4.67063,1207.46,-30.4102,5.50081,1206.47,476.599,0,0,0.00120473,0.0001817,-0.0380378,1.49864,-0.0398446,1.49997,0,0
929,-0.0443052,-2.50063,-3.68334,4.67278,1209.94,-30.8493,4.80031,1208.97,474.964,0,0,0.00120473,0.0001817,-0.0376656,1.49774,-0.0393779,1.49903,0,0
930,-0.0452025,-2.50065,-3.68529,4.67493,1212.42,-31.2884,4.09981,1211.47,473.329,0,0,0.00120473,0.0001817,-0.0372934,1.49684,-0.0389112,1.4981,0,0
931,-0.0460999,-2.50067,-3.68724,4.67708,1214.9,-31.7275,3.39932,1213.97,471.694,0,0,0.00120473,0.0001817,-0.0369211,1.49594,-0.0384445,1.49716,0,0
932,-0.0469972,-2.50069,-3.6892,4.67923,1217.38,-32.1666,2.6989,1216.47,470.059,0,0,0.00120473,0.0001817,-0.036549,1.49505,-0.0379778,1.49622,0,0
933,-0.0478945,-2.5007,-3.69115,4.68138,1219.86,-32.6057,1.9984,1218.97,468.424,0,0,0.00120473,0.0001817,-0.0361767,1.49415,-0.0375111,1.49528,0,0
934,-0.0487919,-2.50072,-3.6931,4.68353,1222.34,-33.0448,1.29791,1221.48,466.789,0,0,0.00120473,0.0001817,-0.0358045,1.49325,-0.0370443,1.49435,0,0
935,-0.0496892,-2.50074,-3.69506,4.68568,1224.82,-33.4839,0.597491,1223.98,465.154,0,0,0.00120473,0.0001817,-0.0354323,1.49236,-0.0365777,1.49341,0,0
936,-0.0505865,-2.50076,-3.69701,4.68783,1227.3,-33.923,-0.103006,1226.48,463.519,0,0,0.00120473,0.0001817,-0.0350601,1.49146,-0.0361109,1.49247,0,0
937,-0.0514839,-2.50078,-3.69897,4.68998,1229.79,-34.3623,-0.803282,1228.98,461.883,0,0,0.00120473,0.0001817,-0.0346879,1.49056,-0.0356444,1.49153,0,0
938,-0.0523812,-2.5008,-3.70092,4.69213,1232.27,-34.8014,-1.50378,1231.48,460.248,0,0,0.00120473,0.0001817,-0.0343156,1.48966,-0.0351777,1.4906,0,0
939,-0.0532785,-2.50082,-3.70287,4.69428,1234.75,-35.2405,-2.20428,1233.98,458.613,0,0,0.00120473,0.0001817,-0.0339434,1.48877,-0.034711,1.48966,0,0
940,-0.0541759,-2.50083,-3.70483,4.69643,1237.23,-35.6796,-2.90469,1236.49,456.978,0,0,0.00120473,0.0001817,-0.0335712,1.48787,-0.0342443,1.48872,0,0
941,-0.0550732,-2.50085,-3.70678,4.69858,1239.71,-36.1187,-3.60519,1238.99,455.343,0,0,0.00120473,0.0001817,-0.033199,1.48697,-0.0337776,1.48778,0,0
942,-0.0547798,-2.5009,-3.70892,4.70074,1242.02,-36.4147,-4.45097,1241.21,453.078,0,0,0.00120473,0.0001817,-0.0324571,1.4839,-0.0337836,1.48467,0,0
943,-0.0544863,-2.50094,-3.71106,4.7029,1242.46,-36.5343,-4.45283,1241.74,451.123,0,0,0.00120473,0.0001817,-0.0324882,1.48616,-0.0332638,1.48694,0,0
944,-0.0541929,-2.50098,-3.7132,4.70506,1243.71,-36.6524,-4.95313,1242.98,449.346,0,0,0.00120473,0.0001817,-0.0324038,1.48706,-0.0334059,1.48785,0,0
945,-0.0538995,-2.50102,-3.71533,4.70722,1244.95,-36.7705,-5.45349,1244.21,447.569,0,0,0.00120473,0.0001817,-0.0323195,1.48797,-0.033548,1.48876,0,0
946,-0.053606,-2.50107,-3.71747,4.70938,1246.19,-36.8886,-5.95387,1245.44,445.792,0,0,0.00120473,0.0001817,-0.0322351,1.48887,-0.0336899,1.48967,0,0
947,-0.0533126,-2.50111,-3.71961,4.71153,1247.44,-37.0068,-6.45422,1246.68,444.015,0,0,0.00120473,0.0001817,-0.0321508,1.48977,-0.033832,1.49058,0,0
948,-0.0530191,-2.50115,-3.72175,4.71369,1248.68,-37.1249,-6.95453,1247.91,442.238,0,0,0.00120473,0.0001817,-0.0320664,1.49068,-0.0339742,1.4915,0,0
949,-0.0527257,-2.50119,-3.72389,4.71585,1249.93,-37.243,-7.45496,1249.14,440.46,0,0,0.00120473,0.0001817,-0.0319821,1.49158,-0.0341161,1.49241,0,0
950,-0.0524323,-2.50124,-3.72602,4.71801,1251.17,-37.3611,-7.95526,1250.38,438.683,0,0,0.00120473,0.0001817,-0.0318977,1.49249,-0.0342582,1.49332,0,0
951,-0.0521388,-2.50128,-3.72816,4.72017,1252.42,-37.4792,-8.45562,1251.61,436.906,0,0,0.00120473,0.0001817,-0.0318134,1.49339,-0.0344003,1.49423,0,0
952,-0.0518454,-2.50132,-3.7303,4.72233,1253.66,-37.5973,-8.95599,1252.84,435.129,0,0,0.00120473,0.0001817,-0.031729,1.4943,-0.0345422,1.49514,0,0
953,-0.051552,-2.50136,-3.73244,4.72449,1254.91,-37.7154,-9.45629,1254.08,433.352,0,0,0.00120473,0.0001817,-0.0316447,1.4952,-0.0346843,1.49605,0,0
954,-0.0512585,-2.50141,-3.73458,4.72664,1256.15,-37.8335,-9.95672,1255.31,431.574,0,0,0.00120473,0.0001817,-0.0315604,1.4961,-0.0348262,1.49696,0,0
955,-0.0509651,-2.50145,-3.73671,4.7288,1257.39,-37.9516,-10.457,1256.54,429.797,0,0,0.00120473,0.0001817,-0.031476,1.49701,-0.0349683,1.49787,0,0
956,-0.0506717,-2.50149,-3.73885,4.73096,1258.64,-38.0698,-10.9574,1257.78,428.02,0,0,0.00120473,0.0001817,-0.0313916,1.49791,-0.0351105,1.49878,0,0
957,-0.0503782,-2.50153,-3.74099,4.73312,1259.88,-38.1878,-11.4578,1259.01,426.243,0,0,0.00120473,0.0001817,-0.0313073,1.49882,-0.0352523,1.49969,0,0
958,-0.0500848,-2.50158,-3.74313,4.73528,1261.13,-38.306,-11.9581,1260.24,424.466,0,0,0.00120473,0.0001817,-0.031223,1.49972,-0.0353945,1.50061,0,0
959,-0.0497913,-2.50162,-3.74527,4.73744,1262.37,-38.4241,-12.4584,1261.48,422.689,0,0,0.00120473,0.0001817,-0.0311386,1.50063,-0.0355366,1.50152,0,0
960,-0.0494979,-2.50166,-3.7474,4.73959,1263.62,-38.5422,-12.9588,1262.71,420.911,0,0,0.00120473,0.0001817,-0.0310543,1.50153,-0.0356785,1.50243,0,0
961,-0.0492045,-2.5017,-3.74954,4.74175,1264.86,-38.6603,-13.4592,1263.94,419.134,0,0,0.00120473,0.0001817,-0.0309699,1.50244,-0.0358206,1.50334,0,0
962,-0.046276,-2.50178,-3.75098,4.74501,1264.07,-38.0326,-13.7394,1263.16,418.22,0,0,0.00120473,0.0001817,-0.030637,1.50158,-0.0360371,1.50249,0,0
963,-0.0433475,-2.50186,-3.75241,4.74828,1263.27,-37.4049,-14.0196,1262.38,417.306,0,0,0.00120473,0.0001817,-0.0303042,1.50072,-0.0362536,1.50163,0,0
964,-0.040419,-2.50193,-3.75384,4.75154,1262.48,-36.7773,-14.2999,1261.6,416.391,0,0,0.00120473,0.0001817,-0.0299713,1.49987,-0.0364701,1.50078,0,0
965,-0.0374905,-2.50201,-3.75528,4.7548,1261.68,-36.1496,-14.5802,1260.82,415.477,0,0,0.00120473,0.0001817,-0.0296384,1.49901,-0.0366866,1.49993,0,0
966,-0.034562,-2.50208,-3.75671,4.75806,1260.89,-35.5219,-14.8605,1260.04,414.563,0,0,0.00120473,0.0001817,-0.0293056,1.49815,-0.0369031,1.49907,0,0
967,-0.0316335,-2.50216,-3.75815,4.76132,1260.09,-34.8942,-15.1407,1259.26,413.648,0,0,0.00120473,0.0001817,-0.0289727,1.4973,-0.0371196,1.49822,0,0
968,-0.028705,-2.50224,-3.75958,4.76458,1259.3,-34.2665,-15.4209,1258.48,412.734,0,0,0.00120473,0.0001817,-0.0286398,1.49644,-0.0373361,1.49737,0,0
969,-0.0257765,-2.50231,-3.76101,4.76785,1258.51,-33.6388,-15.7012,1257.69,411.82,0,0,0.00120473,0.0001817,-0.028307,1.49558,-0.0375526,1.49651,0,0
970,-0.022848,-2.50239,-3.76245,4.77111,1257.71,-33.0111,-15.9814,1256.91,410.906,0,0,0.00120473,0.0001817,-0.0279741,1.49473,-0.0377691,1.49566,0,0
971,-0.0199195,-2.50246,-3.76388,4.77437,1256.92,-32.3835,-16.2617,1256.13,409.991,0,0,0.00120473,0.0001817,-0.0276412,1.49387,-0.0379856,1.49481,0,0
972,-0.016991,-2.50254,-3.76532,4.77763,1256.12,-31.7558,-16.5419,1255.35,409.077,0,0,0.00120473,0.0001817,-0.0273083,1.49301,-0.0382024,1.49395,0,0
973,-0.0140625,-2.50262,-3.76675,4.78089,1255.33,-31.1281,-16.8221,1254.57,408.163,0,0,0.00120473,0.0001817,-0.0269755,1.49216,-0.0384189,1.4931,0,0
974,-0.011134,-2.50269,-3.76818,4.78415,1254.53,-30.5004,-17.1024,1253.79,407.249,0,0,0.00120473,0.0001817,-0.0266426,1.4913,-0.0386354,1.49225,0,0
975,-0.00820552,-2.50277,-3.76962,4.78742,1253.74,-29.8728,-17.3827,1253.01,406.334,0,0,0.00120473,0.0001817,-0.0263097,1.49044,-0.0388519,1.49139,0,0
976,-0.00527702,-2.50284,-3.77105,4.79068,1252.95,-29.2451,-17.6629,1252.23,405.42,0,0,0.00120473,0.0001817,-0.0259769,1.48959,-0.0390684,1.49054,0,0
977,-0.00234852,-2.50292,-3.77249,4.79394,1252.15,-28.6174,-17.9431,1251.45,404.506,0,0,0.00120473,0.0001817,-0.025644,1.48873,-0.0392849,1.48969,0,0
978,0.000579972,-2.503,-3.77392,4.7972,1255.5,-27.9117,-17.2873,1251.41,403.548,0,0,0.00120473,0.0001817,-0.0250638,1.47977,-0.0406431,1.48071,0,0
979,0.00350847,-2.50307,-3.77535,4.80046,1265.33,-27.0841,-15.1664,1252.54,402.521,0,0,0.00120473,0.0001817,-0.0240966,1.45811,-0.0437883,1.45902,0,0
980,0.00643697,-2.50315,-3.77679,4.80372,1265.34,-26.4198,-14.8615,1250.93,400.724,0,0,0.00120473,0.0001817,-0.0235415,1.45827,-0.0437989,1.45916,0,0
981,0.00936546,-2.50322,-3.77822,4.80699,1263.17,-25.7918,-14.9605,1248.72,398.755,0,0,0.00120473,0.0001817,-0.023078,1.46329,-0.0431125,1.46416,0,0
982,-0.00242372,-2.50309,-3.78202,4.81937,1258.53,-29.5023,-20.2029,1257.76,396.438,0,0,0.00120473,0.0001817,-0.0254078,1.49351,-0.0398568,1.49449,0,0
983,-0.0142129,-2.50295,-3.78582,4.83176,1268.08,-32.898,-21.3415,1267.2,392.028,0,0,0.00120473,0.0001817,-0.026503,1.50171,-0.0395631,1.50271,0,0
984,-0.0260021,-2.50281,-3.78962,4.84415,1277.63,-36.2937,-22.4803,1276.64,387.618,0,0,0.00120473,0.0001817,-0.0275983,1.50991,-0.0392691,1.51093,0,0
985,-0.0377913,-2.50267,-3.79342,4.85653,1287.19,-39.6894,-23.6189,1286.08,383.208,0,0,0.00120473,0.0001817,-0.0286935,1.51811,-0.0389754,1.51915,0,0
986,-0.0495804,-2.50253,-3.79722,4.86892,1296.74,-43.0851,-24.7576,1295.52,378.798,0,0,0.00120473,0.0001817,-0.0297888,1.52631,-0.0386814,1.52736,0,0
987,-0.0613696,-2.50239,-3.80102,4.88131,1306.3,-46.4808,-25.8963,1304.96,374.388,0,0,0.00120473,0.0001817,-0.030884,1.53451,-0.0383876,1.53558,0,0
988,-0.0731588,-2.50225,-3.80482,4.8937,1327.56,-49.0542,-23.3152,1312.12,369.923,0,0,0.00120473,0.0001817,-0.0314817,1.51356,-0.039299,1.51482,0,0
989,-0.084948,-2.50212,-3.80862,4.90608,1337.17,-50.7657,-22.8377,1317.54,365.431,0,0,0.00120473,0.0001817,-0.0337947,1.51051,-0.0345948,1.51181,0,0
990,-0.0967372,-2.50198,-3.81242,4.91847,1346.77,-52.4771,-22.3601,1322.95,360.938,0,0,0.00120473,0.0001817,-0.0361076,1.50745,-0.0298904,1.50881,0,0
991,-0.108526,-2.50184,-3.81622,4.93086,1356.37,-54.1886,-21.8826,1328.37,356.445,0,0,0.00120473,0.0001817,-0.0384206,1.5044,-0.0251861,1.5058,0,0
992,-0.120316,-2.5017,-3.82002,4.94324,1365.97,-55.9,-21.4051,1333.79,351.952,0,0,0.00120473,0.0001817,-0.0407336,1.50135,-0.0204817,1.5028,0,0
993,-0.132105,-2.50156,-3.82382,4.95563,1375.57,-57.6115,-20.9275,1339.2,347.459,0,0,0.00120473,0.0001817,-0.0430465,1.4983,-0.0157773,1.49979,0,0
994,-0.143894,-2.50142,-3.82762,4.96802,1385.18,-59.323,-20.45,1344.62,342.966,0,0,0.00120473,0.0001817,-0.0453595,1.49525,-0.0110731,1.49679,0,0
995,-0.155683,-2.50128,-3.83142,4.98041,1394.78,-61.0344,-19.9724,1350.03,338.474,0,0,0.00120473,0.0001817,-0.0476725,1.4922,-0.0063687,1.49378,0,0
996,-0.167472,-2.50114,-3.83522,4.99279,1404.38,-62.7459,-19.4949,1355.45,333.981,0,0,0.00120473,0.0001817,-0.0499854,1.48915,-0.00166444,1.49078,0,0
997,-0.179261,-2.50101,-3.83902,5.00518,1367.88,-61.8884,-25.1097,1335.69,327.901,0,0,0.00120473,0.0001817,-0.0470972,1.52268,0.0101737,1.52484,0,0
998,-0.191051,-2.50087,-3.84282,5.01757,1326.39,-60.7526,-31.3846,1313.21,321.65,0,0,0.00120473,0.0001817,-0.0436455,1.56018,0.0227844,1.56292,0,0
999,-0.20284,-2.50073,-3.84662,5.02996,1306.75,-60.7591,-34.8306,1302.48,315.516,0,0,0.00120473,0.0001817,-0.0413681,1.57379,0.0257187,1.57759,0,0
1000,-0.214629,-2.50059,-3.85042,5.04234,1308.99,-61.5567,-35.8384,1304.38,308.441,0,0,0.00120473,0.0001817,-0.0407483,1.56454,0.0168126,1.56995,0,0
1001,-0.226418,-2.50045,-3.85422,5.05473,1316.29,-61.5872,-37.347,1311.44,298.298,0,0,0.00120473,0.0001817,-0.0418044,1.55288,-0.000597123,1.56025,0,0
1002,-0.222815,-2.50058,-3.85818,5.06008,1316.79,-60.8703,-38.2333,1312.02,295.379,0,0,0.00120473,0.0001817,-0.0425305,1.55802,0.00341655,1.56485,0,0
1003,-0.219213,-2.50072,-3.86213,5.06544,1333.29,-59.1123,-33.038,1309.85,293.436,0,0,0.00120473,0.0001817,-0.045366,1.54408,0.00215903,1.55033,0,0
1004,-0.21561,-2.50085,-3.86609,5.07079,1350.74,-57.2926,-27.4802,1307.52,291.551,0,0,0.00120473,0.0001817,-0.0483273,1.52901,0.000586799,1.53466,0,0
1005,-0.212007,-2.50098,-3.87005,5.07614,1368.19,-55.4725,-21.922,1305.18,289.667,0,0,0.00120473,0.0001817,-0.0512887,1.51393,-0.000985254,1.519,0,0
1006,-0.208405,-2.50111,-3.87401,5.0815,1385.65,-53.6527,-16.364,1302.85,287.782,0,0,0.00120473,0.0001817,-0.0542501,1.49886,-0.00255788,1.50334,0,0
1007,-0.204802,-2.50124,-3.87797,5.08685,1403.1,-51.8327,-10.8061,1300.52,285.897,0,0,0.00120473,0.0001817,-0.0572113,1.48378,-0.00412956,1.48767,0,0
1008,-0.201199,-2.50138,-3.88192,5.09221,1396.16,-49.7863,-7.15115,1292.1,283.77,0,0,0.00120473,0.0001817,-0.0593503,1.48724,0.000724623,1.49094,0,0
1009,-0.197596,-2.50151,-3.88588,5.09756,1382.93,-47.6813,-3.98588,1282.1,281.58,0,0,0.00120473,0.0001817,-0.0612776,1.49546,0.00723333,1.49908,0,0
1010,-0.193994,-2.50164,-3.88984,5.10291,1369.71,-45.5764,-0.820771,1272.11,279.39,0,0,0.00120473,0.0001817,-0.0632049,1.50369,0.0137415,1.50722,0,0
1011,-0.190391,-2.50177,-3.8938,5.10827,1356.48,-43.4716,2.34434,1262.12,277.2,0,0,0.00120473,0.0001817,-0.0651322,1.51191,0.0202496,1.51536,0,0
1012,-0.186788,-2.5019,-3.89776,5.11362,1348,-43.0477,2.78578,1262.29,273.94,0,0,0.00120473,0.0001817,-0.0665586,1.52376,0.0225858,1.52719,0,0
1013,-0.183185,-2.50203,-3.90171,5.11897,1344.26,-43.8484,1.12834,1270.04,269.959,0,0,0.00120473,0.0001817,-0.0674587,1.53682,0.0227243,1.54017,0,0
1014,-0.179583,-2.50217,-3.90567,5.12433,1340.53,-44.6488,-0.528835,1277.79,265.978,0,0,0.00120473,0.0001817,-0.0683589,1.54988,0.0228632,1.55315,0,0
1015,-0.17598,-2.5023,-3.90963,5.12968,1336.79,-45.4495,-2.18628,1285.55,261.998,0,0,0.00120473,0.0001817,-0.069259,1.56294,0.0230017,1.56612,0,0
1016,-0.172377,-2.50243,-3.91359,5.13504,1333.05,-46.25,-3.84346,1293.3,258.017,0,0,0.00120473,0.0001817,-0.0701591,1.576,0.0231405,1.5791,0,0
1017,-0.168775,-2.50256,-3.91754,5.14039,1329.32,-47.0506,-5.5009,1301.05,254.036,0,0,0.00120473,0.0001817,-0.0710593,1.58905,0.023279,1.59208,0,0
1018,-0.165172,-2.50269,-3.9215,5.14574,1325.58,-47.8511,-7.15808,1308.8,250.056,0,0,0.00120473,0.0001817,-0.0719595,1.60211,0.0234179,1.60506,0,0
1019,-0.161569,-2.50283,-3.92546,5.1511,1321.85,-48.6517,-8.81552,1316.56,246.075,0,0,0.00120473,0.0001817,-0.0728596,1.61517,0.0235564,1.61803,0,0
1020,-0.157966,-2.50296,-3.92942,5.15645,1321.39,-48.5236,-9.39749,1319.56,242.91,0,0,0.00120473,0.0001817,-0.0720492,1.61226,0.0231403,1.61511,0,0
1021,-0.154364,-2.50309,-3.93338,5.1618,1322.34,-47.9958,-9.51665,1320.52,240.095,0,0,0.00120473,0.0001817,-0.0705021,1.60248,0.022485,1.60533,0,0
1022,-0.151049,-2.50321,-3.93709,5.16679,1323.27,-47.5023,-9.62144,1321.45,237.418,0,0,0.00120473,0.0001817,-0.0690936,1.59343,0.0218833,1.59628,0,0
1023,-0.147734,-2.50334,-3.94081,5.17177,1324.19,-47.0091,-9.72642,1322.38,234.741,0,0,0.00120473,0.0001817,-0.067685,1.58437,0.0212813,1.58724,0,0
1024,-0.144419,-2.50346,-3.94453,5.17675,1325.11,-46.5156,-9.83121,1323.31,232.063,0,0,0.00120473,0.0001817,-0.0662766,1.57532,0.0206796,1.57819,0,0
1025,-0.141105,-2.50358,-3.94825,5.18173,1326.04,-46.0222,-9.936,1324.24,229.386,0,0,0.00120473,0.0001817,-0.0648682,1.56627,0.0200779,1.56914,0,0
1026,-0.13779,-2.5037,-3.95196,5.18671,1326.96,-45.529,-10.041,1325.17,226.709,0,0,0.00120473,0.0001817,-0.0634596,1.55722,0.0194759,1.5601,0,0
1027,-0.134475,-2.50383,-3.95568,5.1917,1327.89,-45.0355,-10.1458,1326.1,224.032,0,0,0.00120473,0.0001817,-0.0620512,1.54817,0.0188742,1.55105,0,0
1028,-0.131161,-2.50395,-3.9594,5.19668,1328.81,-44.5421,-10.2506,1327.03,221.355,0,0,0.00120473,0.0001817,-0.0606427,1.53912,0.0182725,1.54201,0,0
1029,-0.127846,-2.50407,-3.96311,5.20166,1329.73,-44.0487,-10.3553,1327.95,218.678,0,0,0.00120473,0.0001817,-0.0592343,1.53006,0.0176708,1.53296,0,0
1030,-0.124531,-2.5042,-3.96683,5.20664,1330.66,-43.5554,-10.4603,1328.88,216.001,0,0,0.00120473,0.0001817,-0.0578257,1.52101,0.0170688,1.52392,0,0
1031,-0.121216,-2.50432,-3.97055,5.21162,1331.58,-43.062,-10.5651,1329.81,213.323,0,0,0.00120473,0.0001817,-0.0564173,1.51196,0.0164671,1.51487,0,0
1032,-0.117902,-2.50444,-3.97427,5.21661,1332.5,-42.5686,-10.6699,1330.74,210.646,0,0,0.00120473,0.0001817,-0.0550089,1.50291,0.0158654,1.50582,0,0
1033,-0.114587,-2.50456,-3.97798,5.22159,1333.43,-42.0753,-10.7749,1331.67,207.969,0,0,0.00120473,0.0001817,-0.0536003,1.49386,0.0152634,1.49678,0,0
1034,-0.111272,-2.50469,-3.9817,5.22657,1334.35,-41.5819,-10.8797,1332.6,205.292,0,0,0.00120473,0.0001817,-0.0521919,1.48481,0.0146617,1.48773,0,0
1035,-0.107958,-2.50481,-3.98542,5.23155,1335.27,-41.0885,-10.9845,1333.53,202.615,0,0,0.00120473,0.0001817,-0.0507834,1.47575,0.01406,1.47869,0,0
1036,-0.104643,-2.50493,-3.98913,5.23653,1336.58,-40.4971,-11.1103,1334.85,199.506,0,0,0.00120473,0.0001817,-0.0498399,1.46836,0.0132228,1.47131,0,0
1037,-0.101328,-2.50505,-3.99285,5.24152,1337.91,-39.9004,-11.2375,1336.19,196.373,0,0,0.00120473,0.0001817,-0.0489225,1.46105,0.012372,1.46404,0,0
1038,-0.0980134,-2.50518,-3.99657,5.2465,1339.24,-39.3035,-11.3646,1337.53,193.24,0,0,0.00120473,0.0001817,-0.0480052,1.45375,0.0115216,1.45676,0,0
1039,-0.0946987,-2.5053,-4.00029,5.25148,1340.57,-38.7066,-11.4916,1338.87,190.106,0,0,0.00120473,0.0001817,-0.0470879,1.44645,0.0106712,1.44948,0,0
1040,-0.091384,-2.50542,-4.004,5.25646,1341.9,-38.1099,-11.6189,1340.21,186.974,0,0,0.00120473,0.0001817,-0.0461705,1.43915,0.00982034,1.4422,0,0
1041,-0.0880692,-2.50554,-4.00772,5.26144,1343.23,-37.513,-11.7459,1341.55,183.84,0,0,0.00120473,0.0001817,-0.0452532,1.43184,0.00896992,1.43492,0,0
1042,-0.0808262,-2.50573,-4.01087,5.26934,1342.87,-38.0786,-10.6639,1340.55,181.501,0,0,0.00120473,0.0001817,-0.038208,1.40927,-0.00786502,1.41249,0,0
1043,-0.0735832,-2.50591,-4.01402,5.27724,1341.77,-39.6362,-8.51916,1338.39,179.054,0,0,0.00120473,0.0001817,-0.02795,1.37803,-0.0335435,1.38149,0,0
1044,-0.0663402,-2.50609,-4.01716,5.28514,1340.66,-41.1938,-6.37406,1336.23,176.606,0,0,0.00120473,0.0001817,-0.0176918,1.3468,-0.0592229,1.35048,0,0
1045,-0.0590972,-2.50627,-4.02031,5.29304,1339.56,-42.7513,-4.22895,1334.07,174.159,0,0,0.00120473,0.0001817,-0.00743354,1.31557,-0.0849022,1.31948,0,0
1046,-0.0518542,-2.50645,-4.02346,5.30094,1329.81,-44.7342,-0.749466,1322.24,170.653,0,0,0.00120473,0.0001817,-0.00339245,1.30611,-0.0897365,1.30984,0,0
1047,-0.0446112,-2.50663,-4.02661,5.30884,1316.46,-46.894,3.2846,1306.4,166.707,0,0,0.00120473,0.0001817,-0.00193652,1.3057,-0.0859032,1.30908,0,0
1048,-0.0373682,-2.50681,-4.02976,5.31674,1303.12,-49.0536,7.31876,1290.56,162.762,0,0,0.00120473,0.0001817,-0.000480613,1.3053,-0.08207,1.30833,0,0
1049,-0.0301252,-2.50699,-4.0329,5.32464,1289.78,-51.0202,12.6066,1272.39,159.323,0,0,0.00120473,0.0001817,0.000679938,1.29576,-0.0761816,1.29833,0,0
1050,-0.0228822,-2.50718,-4.03605,5.33254,1276.45,-52.8779,18.6018,1252.93,156.17,0,0,0.00120473,0.0001817,0.00167366,1.28107,-0.0691327,1.28312,0,0
1051,-0.0156392,-2.50736,-4.0392,5.34044,1271.5,-52.0609,21.5072,1244.4,154.125,0,0,0.00120473,0.0001817,0.00303357,1.28261,-0.0632637,1.28442,0,0
1052,-0.00839615,-2.50754,-4.04235,5.34834,1270.02,-50.1356,23.1328,1240.41,152.54,0,0,0.00120473,0.0001817,0.00454522,1.29089,-0.0578831,1.29256,0,0
1053,-0.00115314,-2.50772,-4.0455,5.35624,1268.55,-48.2103,24.7579,1236.42,150.955,0,0,0.00120473,0.0001817,0.00605684,1.29916,-0.0525023,1.30071,0,0
1054,0.00608987,-2.5079,-4.04864,5.36414,1267.07,-46.2851,26.3834,1232.43,149.369,0,0,0.00120473,0.0001817,0.00756849,1.30743,-0.0471217,1.30885,0,0
1055,0.0133329,-2.50808,-4.05179,5.37204,1265.59,-44.3598,28.009,1228.44,147.784,0,0,0.00120473,0.0001817,0.00908014,1.3157,-0.041741,1.317,0,0
1056,0.0205759,-2.50826,-4.05494,5.37994,1264.11,-42.4346,29.6339,1224.45,146.199,0,0,0.00120473,0.0001817,0.0105917,1.32397,-0.0363606,1.32514,0,0
1057,0.0278189,-2.50844,-4.05809,5.38784,1262.63,-40.5094,31.2594,1220.46,144.613,0,0,0.00120473,0.0001817,0.0121034,1.33224,-0.03098,1.33329,0,0
1058,0.0350619,-2.50862,-4.06124,5.39574,1261.15,-38.5841,32.8849,1216.47,143.028,0,0,0.00120473,0.0001817,0.013615,1.34051,-0.0255993,1.34143,0,0
1059,0.0423049,-2.50881,-4.06438,5.40364,1259.67,-36.659,34.5102,1212.48,141.443,0,0,0.00120473,0.0001817,0.0151266,1.34878,-0.020219,1.34958,0,0
1060,0.0495479,-2.50899,-4.06753,5.41154,1258.2,-34.7337,36.1353,1208.49,139.857,0,0,0.00120473,0.0001817,0.0166383,1.35705,-0.0148383,1.35772,0,0
1061,0.0567909,-2.50917,-4.07068,5.41943,1249.75,-38.9962,39.5572,1194.35,136.149,0,0,0.00120473,0.0001817,0.0153217,1.3303,-0.0145473,1.33097,0,0
1062,0.0613728,-2.50922,-4.06903,5.4243,1244.05,-41.0259,39.4367,1188.56,136.929,0,0,0.00120473,0.0001817,0.0148019,1.3333,-0.015801,1.33402,0,0
1063,0.0659547,-2.50927,-4.06739,5.42917,1238.35,-43.0554,39.3155,1182.77,137.709,0,0,0.00120473,0.0001817,0.0142821,1.33631,-0.0170548,1.33707,0,0
1064,0.0705366,-2.50932,-4.06574,5.43404,1232.65,-45.0852,39.195,1176.97,138.489,0,0,0.00120473,0.0001817,0.0137623,1.33931,-0.0183085,1.34012,0,0
1065,0.0751185,-2.50937,-4.0641,5.43891,1226.95,-47.1149,39.0745,1171.18,139.269,0,0,0.00120473,0.0001817,0.0132425,1.34231,-0.0195623,1.34317,0,0
1066,0.0797004,-2.50942,-4.06245,5.44378,1221.25,-49.1444,38.9533,1165.39,140.049,0,0,0.00120473,0.0001817,0.0127227,1.34532,-0.0208161,1.34623,0,0
1067,0.0842823,-2.50947,-4.06081,5.44865,1215.55,-51.1741,38.8328,1159.59,140.829,0,0,0.00120473,0.0001817,0.0122029,1.34832,-0.0220698,1.34928,0,0
1068,0.0888642,-2.50952,-4.05916,5.45352,1209.85,-53.2038,38.7123,1153.8,141.608,0,0,0.00120473,0.0001817,0.011683,1.35132,-0.0233236,1.35233,0,0
1069,0.0934461,-2.50957,-4.05752,5.45838,1205.75,-54.2455,38.9606,1149.37,142.41,0,0,0.00120473,0.0001817,0.0114395,1.34856,-0.0228531,1.34965,0,0
1070,0.098028,-2.50963,-4.05587,5.46325,1204.37,-53.6058,39.8371,1147.26,143.248,0,0,0.00120473,0.0001817,0.0116662,1.336,-0.0194494,1.33725,0,0
1071,0.10261,-2.50968,-4.05423,5.46812,1202.99,-52.9663,40.7138,1145.14,144.086,0,0,0.00120473,0.0001817,0.0118928,1.32343,-0.0160457,1.32484,0,0
1072,0.107192,-2.50973,-4.05258,5.47299,1201.61,-52.3268,41.5902,1143.03,144.924,0,0,0.00120473,0.0001817,0.0121194,1.31087,-0.0126418,1.31243,0,0
1073,0.111774,-2.50978,-4.05094,5.47786,1200.22,-51.6871,42.4667,1140.91,145.763,0,0,0.00120473,0.0001817,0.0123461,1.29831,-0.00923801,1.30003,0,0
1074,0.116356,-2.50983,-4.04929,5.48273,1198.84,-51.0475,43.3431,1138.8,146.601,0,0,0.00120473,0.0001817,0.0125727,1.28574,-0.00583409,1.28762,0,0
1075,0.120938,-2.50988,-4.04765,5.4876,1197.46,-50.4081,44.2198,1136.68,147.439,0,0,0.00120473,0.0001817,0.0127992,1.27318,-0.00243041,1.27521,0,0
1076,0.125519,-2.50993,-4.046,5.49246,1196.08,-49.7686,45.0966,1134.56,148.277,0,0,0.00120473,0.0001817,0.0130258,1.26061,0.000973266,1.26281,0,0
1077,0.130101,-2.50998,-4.04436,5.49733,1194.7,-49.1288,45.9727,1132.45,149.116,0,0,0.00120473,0.0001817,0.0132525,1.24805,0.00437725,1.2504,0,0
1078,0.134683,-2.51003,-4.04271,5.5022,1193.32,-48.4894,46.8495,1130.34,149.954,0,0,0.00120473,0.0001817,0.0134791,1.23548,0.00778094,1.23799,0,0
1079,0.139265,-2.51008,-4.04107,5.50707,1191.93,-47.8499,47.7262,1128.22,150.792,0,0,0.00120473,0.0001817,0.0137057,1.22292,0.0111846,1.22559,0,0
1080,0.143847,-2.51014,-4.03942,5.51194,1190.55,-47.2101,48.6024,1126.11,151.63,0,0,0.00120473,0.0001817,0.0139324,1.21036,0.0145886,1.21318,0,0
1081,0.148429,-2.51019,-4.03778,5.51681,1189.17,-46.5707,49.4791,1123.99,152.468,0,0,0.00120473,0.0001817,0.014159,1.19779,0.0179923,1.20077,0,0
1082,0.129935,-2.50965,-4.02563,5.53894,1202.57,-39.5384,36.0063,1157.48,165.576,0,0,0.00120473,0.0001817,0.0167024,1.32297,0.00698746,1.32577,0,0
1083,0.11144,-2.50912,-4.01348,5.56107,1215.97,-32.5058,22.5329,1190.97,178.685,0,0,0.00120473,0.0001817,0.019246,1.44815,-0.00401706,1.45076,0,0
1084,0.0929458,-2.50858,-4.00133,5.58321,1211.56,-30.8499,12.4805,1194.57,189.867,0,0,0.00120473,0.0001817,0.0160372,1.55409,-0.0228141,1.55567,0,0
1085,0.0744514,-2.50805,-3.98918,5.60534,1217.9,-33.3947,6.67361,1202.62,203.032,0,0,0.00120473,0.0001817,0.0108414,1.57584,-0.0349232,1.57702,0,0
1086,0.055957,-2.50751,-3.97704,5.62747,1233.94,-36.9998,2.38492,1219.68,217.685,0,0,0.00120473,0.0001817,0.00585514,1.55674,-0.0417222,1.55804,0,0
1087,0.0374626,-2.50698,-3.96489,5.64961,1246.71,-40.1325,-1.39838,1233.52,230.386,0,0,0.00120473,0.0001817,0.00075441,1.53038,-0.0491586,1.53181,0,0
1088,0.0189683,-2.50645,-3.95274,5.67174,1255.46,-42.6854,-4.56184,1243.4,240.689,0,0,0.00120473,0.0001817,-0.00448682,1.49513,-0.0573772,1.49668,0,0
1089,0.000473878,-2.50591,-3.94059,5.69388,1264.64,-45.0981,-7.86344,1253.8,251.058,0,0,0.00120473,0.0001817,-0.00971394,1.46057,-0.0656236,1.46226,0,0
1090,-0.0180205,-2.50538,-3.92845,5.71601,1299.93,-38.9905,-19.5755,1296.06,265.371,0,0,0.00120473,0.0001817,-0.0140869,1.46773,-0.0755506,1.47032,0,0
1091,-0.0365149,-2.50484,-3.9163,5.73814,1302.2,-36.1067,-24.6036,1300.84,275.613,0,0,0.00120473,0.0001817,-0.0359276,1.54042,-0.0236826,1.54256,0,0
1092,-0.0550093,-2.50431,-3.90415,5.76028,1298.33,-38.9833,-23.268,1296.91,285.005,0,0,0.00120473,0.0001817,-0.0407613,1.56837,-0.0178186,1.57045,0,0
1093,-0.0735036,-2.50377,-3.892,5.78241,1300.29,-42.1875,-22.3931,1296.27,294.39,0,0,0.00120473,0.0001817,-0.0448786,1.58792,-0.0127145,1.58994,0,0
1094,-0.091998,-2.50324,-3.87986,5.80454,1369.49,-49.1764,-26.8396,1333.74,303.699,0,0,0.00120473,0.0001817,-0.0407203,1.51036,-0.0163859,1.5122,0,0
1095,-0.110492,-2.5027,-3.86771,5.82668,1398.4,-53.7796,-27.1178,1349.86,312.445,0,0,0.00120473,0.0001817,-0.040737,1.48049,-0.0154358,1.48224,0,0
1096,-0.128987,-2.50217,-3.85556,5.84881,1399.07,-56.7117,-24.4761,1351.02,320.798,0,0,0.00120473,0.0001817,-0.043678,1.48404,-0.0112484,1.48574,0,0
1097,-0.147481,-2.50164,-3.84341,5.87094,1399.73,-59.6439,-21.8344,1352.19,329.151,0,0,0.00120473,0.0001817,-0.046619,1.48758,-0.00706098,1.48924,0,0
1098,-0.165976,-2.5011,-3.83126,5.89308,1400.4,-62.576,-19.1927,1353.36,337.504,0,0,0.00120473,0.0001817,-0.04956,1.49113,-0.00287371,1.49273,0,0
1099,-0.18447,-2.50057,-3.81912,5.91521,1322.23,-61.1147,-26.9701,1311.47,343.143,0,0,0.00120473,0.0001817,-0.0436059,1.55725,0.0135137,1.55962,0,0
1100,-0.202964,-2.50003,-3.80697,5.93734,1307.51,-62.9364,-26.5602,1303.66,348.838,0,0,0.00120473,0.0001817,-0.0404802,1.55105,-0.00103367,1.55591,0,0
1101,-0.221459,-2.4995,-3.79482,5.95948,1308.66,-65.588,-24.0949,1304.39,354.619,0,0,0.00120473,0.0001817,-0.0382077,1.5275,-0.0226115,1.53519,0,0
,,,,,,,,,39.34617121,,,,,,,,,,
,,,,,,,,,23.86,,,,,,,,,,
