Analysis: Scenario 1,,,,,,,,,,,,,,,,,,,
Length Units,centimeter,,,,,,,,,,,,,,,,,,
0, x, y, z, x-axis value,(1) Velocity Magnitude(cm/s),(2) Vx-Velocity(cm/s),(3) Vy-Velocity(cm/s),(4) Vz-Velocity(cm/s),(5) Static Pressure(dyne/cm2),(6) Temperature(Celsius),(7) Scalar variable(),(8) Density(g/cm3),(9) Viscosity(poise),(10) Shear Stress XY (Tau-XY)(dyne/cm2),(11) Shear Stress YZ (Tau-YZ)(dyne/cm2),(12) Shear Stress ZX (Tau-ZX)(dyne/cm2),(13) Shear Stress (Tau) Magnitude(dyne/cm2),(14) Wall Film Coefficients(W/cm2/K),(15) Wall Heat Flux(W/cm2)
1,0.156281,-2.51834,-4.45975,0,1414.35,81.192,-289.61,1356.35,17.9828,0,0,0.00120473,0.0001817,0.0389165,1.21076,0.0762924,1.215,0,0
2,0.17218,-2.51835,-4.44933,0.0190098,1394,88.9887,-276.72,1338.11,40.4069,0,0,0.00120473,0.0001817,0.031712,1.11354,0.0811349,1.11785,0,0
3,0.188078,-2.51837,-4.43891,0.0380195,1372.21,94.3318,-262.053,1318.25,60.2168,0,0,0.00120473,0.0001817,0.0299645,1.06827,0.082834,1.07338,0,0
4,0.203976,-2.51838,-4.42849,0.0570293,1351.98,99.7531,-248.483,1299.96,80.053,0,0,0.00120473,0.0001817,0.0279161,1.02508,0.0847746,1.03099,0,0
5,0.219874,-2.5184,-4.41807,0.076039,1333.3,105.256,-236.016,1283.23,99.8952,0,0,0.00120473,0.0001817,0.0255615,0.983986,0.0869556,0.990701,0,0
6,0.235772,-2.51841,-4.40764,0.0950488,1316.17,110.845,-224.656,1268.04,119.731,0,0,0.00120473,0.0001817,0.0228931,0.944996,0.0893766,0.952511,0,0
7,0.25167,-2.51843,-4.39722,0.114059,1300.56,116.523,-214.408,1254.38,139.543,0,0,0.00120473,0.0001817,0.0199054,0.90813,0.0920367,0.916441,0,0
8,0.267569,-2.51844,-4.3868,0.133068,1286.46,122.294,-205.277,1242.23,159.316,0,0,0.00120473,0.0001817,0.016591,0.873396,0.0949353,0.882502,0,0
9,0.283467,-2.51846,-4.37638,0.152078,1273.87,128.161,-197.266,1231.58,179.035,0,0,0.00120473,0.0001817,0.0129441,0.840812,0.0980716,0.850709,0,0
10,0.299365,-2.51847,-4.36596,0.171088,1265.53,133.119,-192.472,1224.49,193.807,0,0,0.00120473,0.0001817,0.0102318,0.82243,0.101421,0.83305,0,0
11,0.315263,-2.51849,-4.35553,0.190098,1265.31,135.326,-193.87,1223.66,195.323,0,0,0.00120473,0.0001817,0.0109106,0.837641,0.104813,0.848807,0,0
12,0.331161,-2.51851,-4.34511,0.209107,1265.12,137.471,-195.422,1222.87,196.89,0,0,0.00120473,0.0001817,0.0116718,0.852959,0.108242,0.864668,0,0
13,0.34706,-2.51852,-4.33469,0.228117,1264.98,139.552,-197.128,1222.12,198.508,0,0,0.00120473,0.0001817,0.0125155,0.868385,0.111708,0.880636,0,0
14,0.362958,-2.51854,-4.32427,0.247127,1264.89,141.57,-198.988,1221.41,200.177,0,0,0.00120473,0.0001817,0.013442,0.883918,0.11521,0.89671,0,0
15,0.378856,-2.51855,-4.31385,0.266137,1264.84,143.526,-201.001,1220.74,201.896,0,0,0.00120473,0.0001817,0.0144506,0.899559,0.11875,0.91289,0,0
16,0.394754,-2.51857,-4.30342,0.285146,0,0,0,0,0,0,0,0,0,0,0,0,0,0,0
17,0.410652,-2.51858,-4.293,0.304156,1281.11,147.113,-200.449,1237.28,214.98,0,0,0.00120473,0.0001817,0.0181597,0.916129,0.124122,0.930501,0,0
18,0.42655,-2.5186,-4.28258,0.323166,1296.61,148.856,-198.041,1253.67,226.32,0,0,0.00120473,0.0001817,0.0206691,0.917723,0.125631,0.932547,0,0
19,0.442449,-2.51861,-4.27216,0.342176,1312.31,150.636,-195.636,1270.35,238.25,0,0,0.00120473,0.0001817,0.0231614,0.919172,0.126757,0.934395,0,0
20,0.458347,-2.51863,-4.26174,0.361185,1328.21,152.452,-193.238,1287.33,250.762,0,0,0.00120473,0.0001817,0.0256384,0.920483,0.127502,0.936053,0,0
21,0.474245,-2.51864,-4.25131,0.380195,1344.32,154.305,-190.844,1304.6,263.857,0,0,0.00120473,0.0001817,0.0280992,0.921653,0.12787,0.937518,0,0
22,0.481298,-2.51866,-4.23731,0.395878,1337.56,160.334,-181.035,1300.4,294.15,0,0,0.00120473,0.0001817,0.0197578,0.886161,0.131655,0.902591,0,0
23,0.48835,-2.51867,-4.2233,0.411562,1332.03,165.863,-171.808,1297.31,323.728,0,0,0.00120473,0.0001817,0.0119626,0.851543,0.137031,0.868736,0,0
24,0.495403,-2.51869,-4.20929,0.427245,1327.72,170.893,-163.162,1295.33,352.57,0,0,0.00120473,0.0001817,0.0047114,0.8178,0.144011,0.835956,0,0
25,0.502456,-2.5187,-4.19528,0.442929,1324.6,175.424,-155.093,1294.44,380.649,0,0,0.00120473,0.0001817,-0.00199653,0.784936,0.152604,0.804255,0,0
26,0.509509,-2.51872,-4.18127,0.458612,1322.68,179.456,-147.6,1294.62,407.943,0,0,0.00120473,0.0001817,-0.00816278,0.752954,0.162822,0.77364,0,0
27,0.516561,-2.51873,-4.16726,0.474295,1321.92,182.989,-140.68,1295.84,434.426,0,0,0.00120473,0.0001817,-0.0137886,0.721859,0.174676,0.744116,0,0
28,0.523614,-2.51875,-4.15326,0.489979,1315.52,185.317,-136.841,1289.79,446.809,0,0,0.00120473,0.0001817,-0.0142524,0.719104,0.176518,0.741514,0,0
29,0.530667,-2.51876,-4.13925,0.505662,1311.9,188.597,-133.819,1285.79,451.342,0,0,0.00120473,0.0001817,-0.0143801,0.716688,0.179723,0.740842,0,0
30,0.53772,-2.51877,-4.12524,0.521346,1311.46,191.482,-130.458,1285.17,456.834,0,0,0.00120473,0.0001817,-0.0140928,0.713711,0.183554,0.739952,0,0
31,0.544772,-2.51879,-4.11123,0.537029,1311.03,194.366,-127.098,1284.54,462.325,0,0,0.00120473,0.0001817,-0.0138054,0.710734,0.187385,0.739062,0,0
32,0.551825,-2.5188,-4.09722,0.552713,1310.59,197.25,-123.737,1283.92,467.816,0,0,0.00120473,0.0001817,-0.013518,0.707757,0.191216,0.738172,0,0
33,0.558878,-2.51882,-4.08322,0.568396,1312.36,199.527,-119.662,1285.78,474.76,0,0,0.00120473,0.0001817,-0.0128231,0.708686,0.198267,0.74187,0,0
34,0.565931,-2.51883,-4.06921,0.584079,1316.88,198.288,-112.215,1291.43,487.254,0,0,0.00120473,0.0001817,-0.0101174,0.714081,0.208452,0.750281,0,0
35,0.572983,-2.51885,-4.0552,0.599763,1315.58,195.077,-103.436,1291.31,500.751,0,0,0.00120473,0.0001817,-0.00653832,0.708526,0.208899,0.74513,0,0
36,0.580036,-2.51886,-4.04119,0.615446,1314.28,191.865,-94.6571,1291.19,514.248,0,0,0.00120473,0.0001817,-0.0029592,0.702971,0.209347,0.73998,0,0
37,0.587089,-2.51888,-4.02718,0.63113,1312.98,188.653,-85.8782,1291.08,527.745,0,0,0.00120473,0.0001817,0.000619861,0.697415,0.209795,0.734829,0,0
38,0.594142,-2.51889,-4.01317,0.646813,1311.68,185.441,-77.0994,1290.96,541.242,0,0,0.00120473,0.0001817,0.00419894,0.69186,0.210242,0.729679,0,0
39,0.601194,-2.5189,-3.99917,0.662496,1310.38,182.229,-68.3204,1290.84,554.739,0,0,0.00120473,0.0001817,0.00777808,0.686305,0.21069,0.724528,0,0
40,0.608247,-2.51892,-3.98516,0.67818,1309.07,179.017,-59.5415,1290.73,568.237,0,0,0.00120473,0.0001817,0.0113572,0.680749,0.211138,0.719378,0,0
41,0.6153,-2.51893,-3.97115,0.693863,1307.77,175.806,-50.7627,1290.61,581.734,0,0,0.00120473,0.0001817,0.0149363,0.675194,0.211585,0.714227,0,0
42,0.61638,-2.51894,-3.95725,0.707811,1291.75,173.093,-43.209,1275.44,595.125,0,0,0.00120473,0.0001817,0.0170208,0.680737,0.213355,0.719633,0,0
43,0.617461,-2.51896,-3.94334,0.721758,1275.72,170.38,-35.6552,1260.27,608.516,0,0,0.00120473,0.0001817,0.0191053,0.686279,0.215124,0.725038,0,0
44,0.618541,-2.51897,-3.92943,0.735705,1259.7,167.667,-28.1015,1245.1,621.907,0,0,0.00120473,0.0001817,0.0211897,0.691822,0.216893,0.730444,0,0
45,0.619621,-2.51898,-3.91553,0.749652,1243.67,164.955,-20.5477,1229.93,635.299,0,0,0.00120473,0.0001817,0.0232742,0.697365,0.218662,0.73585,0,0
46,0.620702,-2.51899,-3.90162,0.763599,1227.64,162.242,-12.994,1214.76,648.69,0,0,0.00120473,0.0001817,0.0253587,0.702907,0.220431,0.741255,0,0
47,0.621782,-2.519,-3.88772,0.777547,1211.62,159.529,-5.44027,1199.59,662.081,0,0,0.00120473,0.0001817,0.0274432,0.70845,0.2222,0.746661,0,0
48,0.622862,-2.51901,-3.87381,0.791494,1195.59,156.816,2.11344,1184.42,675.472,0,0,0.00120473,0.0001817,0.0295277,0.713993,0.22397,0.752066,0,0
49,0.623943,-2.51903,-3.85991,0.805441,1186.49,157.167,6.45268,1175.44,681.845,0,0,0.00120473,0.0001817,0.029203,0.718236,0.223992,0.755677,0,0
50,0.625023,-2.51904,-3.846,0.819388,1180.07,158.507,9.62188,1168.87,685.419,0,0,0.00120473,0.0001817,0.0281144,0.720929,0.222689,0.757414,0,0
51,0.626103,-2.51905,-3.8321,0.833336,1175.04,157.399,13.2857,1163.83,686.208,0,0,0.00120473,0.0001817,0.0291809,0.706807,0.210798,0.740186,0,0
52,0.627184,-2.51906,-3.81819,0.847283,1170.01,156.291,16.9494,1158.79,686.997,0,0,0.00120473,0.0001817,0.0302473,0.692686,0.198907,0.722958,0,0
53,0.628264,-2.51907,-3.80429,0.86123,1167.51,153.992,21.8304,1156.22,687.861,0,0,0.00120473,0.0001817,0.0314866,0.684622,0.193604,0.713633,0,0
54,0.629344,-2.51908,-3.79038,0.875177,1168.08,150.247,28.1877,1156.67,688.817,0,0,0.00120473,0.0001817,0.0329355,0.683905,0.19629,0.713891,0,0
55,0.630425,-2.5191,-3.77648,0.889125,1168.66,146.503,34.545,1157.11,689.773,0,0,0.00120473,0.0001817,0.0343844,0.683188,0.198976,0.714149,0,0
56,0.631505,-2.51911,-3.76257,0.903072,1169.23,142.758,40.9023,1157.55,690.729,0,0,0.00120473,0.0001817,0.0358333,0.682471,0.201662,0.714407,0,0
57,0.632586,-2.51912,-3.74867,0.917019,1169.81,139.014,47.2596,1157.99,691.685,0,0,0.00120473,0.0001817,0.0372822,0.681753,0.204349,0.714665,0,0
58,0.633666,-2.51913,-3.73476,0.930966,1170.38,135.269,53.617,1158.44,692.641,0,0,0.00120473,0.0001817,0.0387311,0.681036,0.207035,0.714923,0,0
59,0.634746,-2.51914,-3.72085,0.944913,1170.96,131.524,59.9743,1158.88,693.596,0,0,0.00120473,0.0001817,0.04018,0.680319,0.209721,0.715182,0,0
60,0.635827,-2.51915,-3.70695,0.958861,1171.53,127.78,66.3316,1159.32,694.552,0,0,0.00120473,0.0001817,0.0416289,0.679602,0.212407,0.71544,0,0
61,0.636907,-2.51917,-3.69304,0.972808,1172.11,124.035,72.689,1159.76,695.508,0,0,0.00120473,0.0001817,0.0430778,0.678885,0.215094,0.715698,0,0
62,0.628927,-2.51918,-3.67678,0.990924,1146.07,116.084,81.1604,1133.71,699.489,0,0,0.00120473,0.0001817,0.045993,0.68319,0.213587,0.719085,0,0
63,0.620947,-2.51919,-3.66052,1.00904,1120.03,108.132,89.632,1107.65,703.471,0,0,0.00120473,0.0001817,0.0489082,0.687496,0.212081,0.722472,0,0
64,0.612967,-2.5192,-3.64425,1.02715,1093.99,100.181,98.1034,1081.6,707.452,0,0,0.00120473,0.0001817,0.0518235,0.691802,0.210575,0.725859,0,0
65,0.604987,-2.5192,-3.62799,1.04527,1077.68,92.4201,106.826,1065.28,711.176,0,0,0.00120473,0.0001817,0.0548925,0.701724,0.210532,0.735522,0,0
66,0.597006,-2.51921,-3.61173,1.06339,1068.13,84.7925,115.724,1055.74,714.721,0,0,0.00120473,0.0001817,0.0580687,0.715561,0.21151,0.749559,0,0
67,0.589026,-2.51922,-3.59546,1.0815,1058.42,77.1995,124.474,1046.03,718.182,0,0,0.00120473,0.0001817,0.0611715,0.727373,0.212675,0.76164,0,0
68,0.581046,-2.51923,-3.5792,1.09962,1046.8,69.9951,131.557,1034.34,720.69,0,0,0.00120473,0.0001817,0.0634496,0.716432,0.215934,0.751743,0,0
69,0.573066,-2.51924,-3.56294,1.11773,1034.86,64.5957,135.76,1022.6,715.141,0,0,0.00120473,0.0001817,0.0665895,0.724272,0.214755,0.759168,0,0
70,0.565086,-2.51925,-3.54667,1.13585,1020.6,60.6098,136.737,1008.8,702.714,0,0,0.00120473,0.0001817,0.0694174,0.739808,0.208552,0.773046,0,0
71,0.557106,-2.51926,-3.53041,1.15396,1005.05,54.5236,135.984,993.482,687.211,0,0,0.00120473,0.0001817,0.0731799,0.747605,0.206404,0.78029,0,0
72,0.549126,-2.51927,-3.51415,1.17208,994.129,46.2997,138.118,982.076,671.103,0,0,0.00120473,0.0001817,0.0765823,0.749888,0.204793,0.782447,0,0
73,0.541146,-2.51928,-3.49788,1.1902,983.202,38.0757,140.253,970.671,654.994,0,0,0.00120473,0.0001817,0.0799847,0.75217,0.203182,0.784604,0,0
74,0.533165,-2.51929,-3.48162,1.20831,972.275,29.8517,142.387,959.265,638.886,0,0,0.00120473,0.0001817,0.083387,0.754453,0.201571,0.786762,0,0
75,0.525185,-2.5193,-3.46536,1.22643,961.349,21.6278,144.521,947.86,622.778,0,0,0.00120473,0.0001817,0.0867894,0.756735,0.199961,0.788919,0,0
76,0.517205,-2.51931,-3.44909,1.24454,950.422,13.4037,146.655,936.454,606.669,0,0,0.00120473,0.0001817,0.0901918,0.759018,0.19835,0.791076,0,0
77,0.509225,-2.51932,-3.43283,1.26266,939.496,5.17979,148.789,925.049,590.56,0,0,0.00120473,0.0001817,0.0935942,0.7613,0.196739,0.793234,0,0
78,0.501245,-2.51933,-3.41657,1.28077,928.57,-3.04415,150.924,913.644,574.452,0,0,0.00120473,0.0001817,0.0969966,0.763583,0.195128,0.795391,0,0
79,0.493265,-2.51934,-3.4003,1.29889,917.643,-11.2683,153.058,902.238,558.343,0,0,0.00120473,0.0001817,0.100399,0.765865,0.193517,0.797548,0,0
80,0.485285,-2.51935,-3.38404,1.31701,906.716,-19.4922,155.192,890.832,542.235,0,0,0.00120473,0.0001817,0.103801,0.768148,0.191906,0.799706,0,0
81,0.477305,-2.51936,-3.36778,1.33512,895.79,-27.7162,157.326,879.427,526.126,0,0,0.00120473,0.0001817,0.107204,0.77043,0.190295,0.801863,0,0
82,0.463974,-2.51936,-3.36044,1.35034,876.631,-32.8308,153.637,860.765,516.43,0,0,0.00120473,0.0001817,0.108732,0.772303,0.184709,0.80253,0,0
83,0.450643,-2.51936,-3.3531,1.36556,857.583,-37.357,149.095,842.282,508.466,0,0,0.00120473,0.0001817,0.109562,0.769533,0.178193,0.798386,0,0
84,0.437312,-2.51936,-3.34576,1.38078,842.627,-39.2601,144.969,827.837,496.308,0,0,0.00120473,0.0001817,0.107967,0.769858,0.169005,0.797195,0,0
85,0.423981,-2.51936,-3.33842,1.39599,833.307,-38.6812,141.094,818.953,486.803,0,0,0.00120473,0.0001817,0.103905,0.769272,0.159226,0.795037,0,0
86,0.41065,-2.51936,-3.33108,1.41121,824.013,-38.1376,137.208,810.093,477.653,0,0,0.00120473,0.0001817,0.0998689,0.768472,0.149571,0.792671,0,0
87,0.397319,-2.51936,-3.32374,1.42643,814.719,-37.5941,133.322,801.233,468.503,0,0,0.00120473,0.0001817,0.0958327,0.767673,0.139915,0.790305,0,0
88,0.383988,-2.51936,-3.3164,1.44165,805.425,-37.0506,129.436,792.373,459.353,0,0,0.00120473,0.0001817,0.0917965,0.766873,0.130259,0.787939,0,0
89,0.370657,-2.51936,-3.30906,1.45687,795.123,-35.9355,126.067,782.438,452.684,0,0,0.00120473,0.0001817,0.0876211,0.767201,0.120703,0.786585,0,0
90,0.357327,-2.51936,-3.30172,1.47208,782.456,-33.4794,123.912,769.98,451.837,0,0,0.00120473,0.0001817,0.0831193,0.770177,0.11138,0.787603,0,0
91,0.343996,-2.51936,-3.29438,1.4873,769.788,-31.0234,121.758,757.522,450.99,0,0,0.00120473,0.0001817,0.0786175,0.773152,0.102057,0.788622,0,0
92,0.330665,-2.51936,-3.28704,1.50252,757.121,-28.5674,119.604,745.064,450.143,0,0,0.00120473,0.0001817,0.0741157,0.776128,0.0927338,0.78964,0,0
93,0.317334,-2.51936,-3.2797,1.51774,744.454,-26.1114,117.449,732.607,449.295,0,0,0.00120473,0.0001817,0.0696139,0.779103,0.0834108,0.790659,0,0
94,0.304003,-2.51936,-3.27236,1.53296,731.786,-23.6553,115.295,720.149,448.448,0,0,0.00120473,0.0001817,0.0651122,0.782079,0.0740878,0.791677,0,0
95,0.290672,-2.51936,-3.26502,1.54817,719.119,-21.1993,113.141,707.691,447.601,0,0,0.00120473,0.0001817,0.0606104,0.785055,0.0647647,0.792696,0,0
96,0.277341,-2.51936,-3.25768,1.56339,706.452,-18.7433,110.986,695.234,446.754,0,0,0.00120473,0.0001817,0.0561086,0.78803,0.0554417,0.793714,0,0
97,0.26401,-2.51936,-3.25034,1.57861,693.785,-16.2872,108.832,682.776,445.907,0,0,0.00120473,0.0001817,0.0516069,0.791006,0.0461187,0.794732,0,0
98,0.250679,-2.51936,-3.243,1.59383,691.346,-16.4407,111.975,679.732,444.561,0,0,0.00120473,0.0001817,0.0478521,0.789369,0.0429736,0.792533,0,0
99,0.237348,-2.51936,-3.23566,1.60905,691.179,-17.1734,116.295,678.779,443.104,0,0,0.00120473,0.0001817,0.0442633,0.786709,0.0412001,0.789619,0,0
100,0.224018,-2.51936,-3.22832,1.62426,691.012,-17.9062,120.615,677.825,441.648,0,0,0.00120473,0.0001817,0.0406744,0.784049,0.0394266,0.786706,0,0
101,0.210687,-2.51936,-3.22098,1.63948,690.845,-18.6389,124.935,676.872,440.191,0,0,0.00120473,0.0001817,0.0370856,0.781388,0.0376531,0.783792,0,0
102,0.1975,-2.51935,-3.22209,1.65272,690.377,-18.9538,124.973,676.35,438.716,0,0,0.00120473,0.0001817,0.033776,0.775744,0.0356172,0.77793,0,0
103,0.184312,-2.51935,-3.22321,1.66595,689.91,-19.2687,125.01,675.829,437.242,0,0,0.00120473,0.0001817,0.0304665,0.7701,0.0335813,0.772069,0,0
104,0.171125,-2.51934,-3.22433,1.67919,690.629,-18.9029,125.582,676.32,437.625,0,0,0.00120473,0.0001817,0.0271114,0.765003,0.0316088,0.76679,0,0
105,0.157938,-2.51933,-3.22545,1.69242,694.663,-16.6374,127.641,679.637,443.193,0,0,0.00120473,0.0001817,0.0236289,0.761432,0.0298134,0.76314,0,0
106,0.144751,-2.51933,-3.22656,1.70565,698.697,-14.372,129.7,682.954,448.762,0,0,0.00120473,0.0001817,0.0201465,0.75786,0.028018,0.75949,0,0
107,0.131564,-2.51932,-3.22768,1.71889,702.731,-12.1066,131.759,686.272,454.33,0,0,0.00120473,0.0001817,0.0166641,0.75429,0.0262227,0.75584,0,0
108,0.118377,-2.51931,-3.2288,1.73212,706.765,-9.84117,133.819,689.589,459.898,0,0,0.00120473,0.0001817,0.0131816,0.750719,0.0244273,0.752189,0,0
109,0.10519,-2.5193,-3.22992,1.74536,711.126,-7.24524,135.282,693.331,464.829,0,0,0.00120473,0.0001817,0.0094236,0.745407,0.0225134,0.746804,0,0
110,0.0920027,-2.5193,-3.23103,1.75859,716.669,-3.45569,134.593,698.61,467.456,0,0,0.00120473,0.0001817,0.00467039,0.733812,0.0201718,0.73515,0,0
111,0.0788156,-2.51929,-3.23215,1.77183,722.21,0.333775,133.904,703.887,470.084,0,0,0.00120473,0.0001817,-8.28E-05,0.722218,0.0178302,0.723497,0,0
112,0.0656285,-2.51928,-3.23327,1.78506,727.752,4.12331,133.215,709.164,472.711,0,0,0.00120473,0.0001817,-0.00483599,0.710623,0.0154885,0.711844,0,0
113,0.0524414,-2.51928,-3.23439,1.79829,733.295,7.91285,132.526,714.442,475.339,0,0,0.00120473,0.0001817,-0.00958919,0.699028,0.0131469,0.700191,0,0
114,0.0392543,-2.51927,-3.2355,1.81153,738.837,11.7023,131.837,719.719,477.966,0,0,0.00120473,0.0001817,-0.0143424,0.687434,0.0108052,0.688537,0,0
115,0.0260672,-2.51926,-3.23662,1.82476,733.995,11.753,130.878,714.158,487.018,0,0,0.00120473,0.0001817,-0.0172868,0.675365,0.00585643,0.676235,0,0
116,0.0128801,-2.51926,-3.23774,1.838,728.716,10.9084,130.622,708.193,496.347,0,0,0.00120473,0.0001817,-0.0200241,0.669077,0.000646144,0.669737,0,0
117,-0.00030697,-2.51925,-3.23886,1.85123,731.568,10.1721,133.294,710.955,500.126,0,0,0.00120473,0.0001817,-0.0233525,0.685715,-0.00297941,0.686445,0,0
118,-0.0134941,-2.51924,-3.23998,1.86447,734.254,11.9133,133.423,713.743,499.63,0,0,0.00120473,0.0001817,-0.0245234,0.685509,-0.00514304,0.686413,0,0
119,-0.0266812,-2.51924,-3.24109,1.8777,736.94,13.6545,133.552,716.531,499.135,0,0,0.00120473,0.0001817,-0.0256943,0.685303,-0.00730667,0.68638,0,0
120,-0.0398683,-2.51923,-3.24221,1.89094,739.627,15.3956,133.681,719.32,498.639,0,0,0.00120473,0.0001817,-0.0268653,0.685097,-0.00947026,0.686347,0,0
121,-0.0530554,-2.51922,-3.24333,1.90417,742.313,17.1368,133.809,722.109,498.144,0,0,0.00120473,0.0001817,-0.0280362,0.684891,-0.0116339,0.686314,0,0
122,-0.0659973,-2.51921,-3.25078,1.9191,743.569,17.9902,131.274,724.126,494.799,0,0,0.00120473,0.0001817,-0.0282834,0.684564,-0.0131542,0.686145,0,0
123,-0.0789393,-2.5192,-3.25823,1.93404,744.826,18.8435,128.738,726.143,491.454,0,0,0.00120473,0.0001817,-0.0285306,0.684238,-0.0146744,0.685976,0,0
124,-0.0918813,-2.51919,-3.26568,1.94897,746.082,19.6969,126.203,728.16,488.11,0,0,0.00120473,0.0001817,-0.0287778,0.683911,-0.0161947,0.685806,0,0
125,-0.104823,-2.51918,-3.27312,1.9639,747.338,20.5503,123.667,730.177,484.765,0,0,0.00120473,0.0001817,-0.0290249,0.683585,-0.017715,0.685637,0,0
126,-0.117765,-2.51917,-3.28057,1.97883,748.595,21.4036,121.132,732.195,481.42,0,0,0.00120473,0.0001817,-0.0292722,0.683259,-0.0192352,0.685468,0,0
127,-0.130707,-2.51915,-3.28802,1.99377,749.851,22.257,118.596,734.212,478.075,0,0,0.00120473,0.0001817,-0.0295193,0.682932,-0.0207555,0.685299,0,0
128,-0.143649,-2.51914,-3.29547,2.0087,750.201,22.2574,115.437,735.258,476.149,0,0,0.00120473,0.0001817,-0.0306821,0.683256,-0.0220733,0.685687,0,0
129,-0.156591,-2.51913,-3.30292,2.02363,750.132,21.8626,111.99,735.853,474.88,0,0,0.00120473,0.0001817,-0.0322692,0.68388,-0.0232973,0.686335,0,0
130,-0.169533,-2.51912,-3.31037,2.03856,750.063,21.4677,108.542,736.45,473.611,0,0,0.00120473,0.0001817,-0.0338563,0.684504,-0.0245212,0.686982,0,0
131,-0.182475,-2.51911,-3.31782,2.0535,749.993,21.0729,105.094,737.046,472.343,0,0,0.00120473,0.0001817,-0.0354434,0.685129,-0.0257451,0.687629,0,0
132,-0.195417,-2.51909,-3.32527,2.06843,749.923,20.6781,101.647,737.642,471.074,0,0,0.00120473,0.0001817,-0.0370306,0.685753,-0.0269691,0.688277,0,0
133,-0.208359,-2.51908,-3.33272,2.08336,749.854,20.2833,98.1989,738.238,469.805,0,0,0.00120473,0.0001817,-0.0386177,0.686377,-0.028193,0.688924,0,0
134,-0.221301,-2.51907,-3.34017,2.09829,749.784,19.8885,94.7513,738.834,468.537,0,0,0.00120473,0.0001817,-0.0402048,0.687002,-0.029417,0.689571,0,0
135,-0.234243,-2.51906,-3.34761,2.11323,749.715,19.4936,91.3036,739.43,467.268,0,0,0.00120473,0.0001817,-0.0417919,0.687626,-0.0306409,0.690219,0,0
136,-0.247185,-2.51905,-3.35506,2.12816,749.645,19.0988,87.8559,740.026,465.999,0,0,0.00120473,0.0001817,-0.043379,0.68825,-0.0318648,0.690866,0,0
137,-0.260127,-2.51904,-3.36251,2.14309,749.576,18.704,84.4083,740.623,464.731,0,0,0.00120473,0.0001817,-0.0449661,0.688875,-0.0330888,0.691513,0,0
138,-0.273069,-2.51902,-3.36996,2.15802,749.506,18.3092,80.9606,741.219,463.462,0,0,0.00120473,0.0001817,-0.0465532,0.689499,-0.0343127,0.69216,0,0
139,-0.286011,-2.51901,-3.37741,2.17296,752.172,17.396,79.1454,743.957,465.366,0,0,0.00120473,0.0001817,-0.046998,0.684026,-0.0370754,0.686876,0,0
140,-0.298953,-2.519,-3.38486,2.18789,758.355,15.8456,79.3922,749.464,471.288,0,0,0.00120473,0.0001817,-0.0460091,0.670849,-0.0418255,0.674107,0,0
141,-0.311895,-2.51899,-3.39231,2.20282,766.412,18.0184,75.6591,758.239,470.808,0,0,0.00120473,0.0001817,-0.049113,0.672103,-0.049045,0.676754,0,0
142,-0.32243,-2.51897,-3.40611,2.22018,769.853,18.1127,68.7388,763.109,467.383,0,0,0.00120473,0.0001817,-0.0512406,0.674261,-0.0535099,0.679872,0,0
143,-0.332964,-2.51896,-3.41991,2.23754,773.296,18.207,61.8184,767.98,463.958,0,0,0.00120473,0.0001817,-0.0533681,0.676419,-0.0579747,0.68299,0,0
144,-0.343499,-2.51894,-3.43371,2.2549,776.738,18.3014,54.8981,772.851,460.534,0,0,0.00120473,0.0001817,-0.0554958,0.678577,-0.0624396,0.686109,0,0
145,-0.354034,-2.51893,-3.44751,2.27227,783.467,13.6122,50.4178,780.102,457.581,0,0,0.00120473,0.0001817,-0.0572346,0.68734,-0.0684488,0.69592,0,0
146,-0.364569,-2.51891,-3.4613,2.28963,789.829,10.1252,46.8346,786.416,458.206,0,0,0.00120473,0.0001817,-0.0589324,0.694816,-0.0758847,0.704553,0,0
147,-0.375103,-2.51889,-3.4751,2.30699,793.902,11.0596,43.4703,789.973,464.453,0,0,0.00120473,0.0001817,-0.0607618,0.6968,-0.0848668,0.707824,0,0
148,-0.385638,-2.51888,-3.4889,2.32435,797.976,11.9939,40.1061,793.532,470.699,0,0,0.00120473,0.0001817,-0.0625912,0.698783,-0.0938489,0.711096,0,0
149,-0.396173,-2.51886,-3.5027,2.34171,802.049,12.9283,36.7418,797.089,476.945,0,0,0.00120473,0.0001817,-0.0644207,0.700766,-0.102831,0.714367,0,0
150,-0.406707,-2.51885,-3.5165,2.35907,806.121,13.8627,33.3776,800.646,483.191,0,0,0.00120473,0.0001817,-0.0662501,0.702749,-0.111813,0.717638,0,0
151,-0.417242,-2.51883,-3.5303,2.37643,810.195,14.797,30.0134,804.204,489.437,0,0,0.00120473,0.0001817,-0.0680796,0.704732,-0.120795,0.72091,0,0
152,-0.427777,-2.51882,-3.5441,2.39379,817.64,13.0916,26.9452,811.498,493.997,0,0,0.00120473,0.0001817,-0.0692858,0.706322,-0.128886,0.7241,0,0
153,-0.438312,-2.5188,-3.5579,2.41115,830.415,7.21363,24.3449,824.698,495.891,0,0,0.00120473,0.0001817,-0.069507,0.707293,-0.135566,0.727161,0,0
154,-0.448846,-2.51878,-3.5717,2.42851,843.19,1.33558,21.7446,837.898,497.786,0,0,0.00120473,0.0001817,-0.0697282,0.708263,-0.142247,0.730222,0,0
155,-0.459381,-2.51877,-3.5855,2.44587,855.965,-4.54239,19.1444,851.098,499.68,0,0,0.00120473,0.0001817,-0.0699493,0.709233,-0.148928,0.733284,0,0
156,-0.469916,-2.51875,-3.5993,2.46323,868.754,-10.4769,16.5478,864.317,501.447,0,0,0.00120473,0.0001817,-0.0701424,0.709976,-0.155586,0.736108,0,0
157,-0.48045,-2.51874,-3.61309,2.48059,881.877,-17.82,14.043,877.982,500.033,0,0,0.00120473,0.0001817,-0.0696322,0.705043,-0.161673,0.732994,0,0
158,-0.490985,-2.51872,-3.62689,2.49795,894.999,-25.1631,11.5382,891.647,498.619,0,0,0.00120473,0.0001817,-0.0691219,0.70011,-0.16776,0.729881,0,0
159,-0.50152,-2.5187,-3.64069,2.51532,908.123,-32.5063,9.03342,905.313,497.206,0,0,0.00120473,0.0001817,-0.0686118,0.695177,-0.173847,0.726768,0,0
160,-0.512054,-2.51869,-3.65449,2.53268,921.246,-39.8495,6.5286,918.978,495.792,0,0,0.00120473,0.0001817,-0.0681015,0.690243,-0.179934,0.723654,0,0
161,-0.522589,-2.51867,-3.66829,2.55004,934.369,-47.1925,4.02385,932.643,494.378,0,0,0.00120473,0.0001817,-0.0675913,0.68531,-0.186021,0.720541,0,0
162,-0.521967,-2.51866,-3.68639,2.56814,937.581,-53.0923,-2.71084,935.301,497.626,0,0,0.00120473,0.0001817,-0.0631706,0.690412,-0.188537,0.725757,0,0
163,-0.521345,-2.51864,-3.70448,2.58625,941.046,-58.8982,-9.5301,938.159,501.146,0,0,0.00120473,0.0001817,-0.0586936,0.696044,-0.191206,0.731509,0,0
164,-0.520723,-2.51863,-3.72258,2.60436,944.511,-64.7041,-16.3493,941.017,504.666,0,0,0.00120473,0.0001817,-0.0542166,0.701676,-0.193874,0.73726,0,0
165,-0.520101,-2.51862,-3.74068,2.62247,947.975,-70.51,-23.1684,943.875,508.186,0,0,0.00120473,0.0001817,-0.0497397,0.707307,-0.196543,0.743011,0,0
166,-0.519479,-2.5186,-3.75877,2.64057,951.44,-76.316,-29.9877,946.733,511.707,0,0,0.00120473,0.0001817,-0.0452626,0.712939,-0.199212,0.748763,0,0
167,-0.518857,-2.51859,-3.77687,2.65868,954.905,-82.1219,-36.8069,949.591,515.227,0,0,0.00120473,0.0001817,-0.0407857,0.71857,-0.20188,0.754514,0,0
168,-0.518235,-2.51857,-3.79497,2.67679,958.057,-87.9671,-43.3788,952.143,518.459,0,0,0.00120473,0.0001817,-0.0358969,0.720943,-0.203558,0.756782,0,0
169,-0.517613,-2.51856,-3.81306,2.6949,960.746,-93.8708,-49.5845,954.244,521.264,0,0,0.00120473,0.0001817,-0.0303979,0.718485,-0.203765,0.753885,0,0
170,-0.516991,-2.51854,-3.83116,2.713,970.317,-97.858,-52.3169,963.494,528.963,0,0,0.00120473,0.0001817,-0.0268838,0.723723,-0.205462,0.758905,0,0
171,-0.516369,-2.51853,-3.84926,2.73111,978.655,-99.8176,-51.4515,971.733,540.544,0,0,0.00120473,0.0001817,-0.025764,0.731795,-0.208955,0.767289,0,0
172,-0.515747,-2.51852,-3.86735,2.74922,986.271,-101.765,-50.5715,979.247,552.038,0,0,0.00120473,0.0001817,-0.0246828,0.739436,-0.212477,0.775271,0,0
173,-0.515124,-2.5185,-3.88545,2.76733,993.885,-103.713,-49.6917,986.759,563.531,0,0,0.00120473,0.0001817,-0.0236017,0.747078,-0.215999,0.783253,0,0
174,-0.514502,-2.51849,-3.90355,2.78543,1001.5,-105.661,-48.8118,994.271,575.025,0,0,0.00120473,0.0001817,-0.0225206,0.75472,-0.219521,0.791235,0,0
175,-0.51388,-2.51847,-3.92165,2.80354,1009.11,-107.609,-47.9319,1001.78,586.519,0,0,0.00120473,0.0001817,-0.0214395,0.762362,-0.223043,0.799217,0,0
176,-0.513258,-2.51846,-3.93974,2.82165,1016.73,-109.556,-47.052,1009.3,598.013,0,0,0.00120473,0.0001817,-0.0203584,0.770003,-0.226565,0.807198,0,0
177,-0.512636,-2.51844,-3.95784,2.83976,1026.29,-111.125,-46.7287,1018.8,601.315,0,0,0.00120473,0.0001817,-0.0189807,0.767241,-0.225376,0.8041,0,0
178,-0.512014,-2.51843,-3.97594,2.85786,1034.29,-110.561,-44.4821,1026.95,592.743,0,0,0.00120473,0.0001817,-0.0166046,0.742013,-0.212981,0.776519,0,0
179,-0.511392,-2.51842,-3.99403,2.87597,1042.28,-109.996,-42.2355,1035.1,584.171,0,0,0.00120473,0.0001817,-0.0142285,0.716785,-0.200586,0.748938,0,0
180,-0.51077,-2.5184,-4.01213,2.89408,1050.28,-109.432,-39.9889,1043.26,575.599,0,0,0.00120473,0.0001817,-0.0118525,0.691557,-0.188192,0.721357,0,0
181,-0.510148,-2.51839,-4.03023,2.91219,1058.27,-108.867,-37.7423,1051.41,567.027,0,0,0.00120473,0.0001817,-0.00947637,0.666328,-0.175797,0.693776,0,0
182,-0.49926,-2.51838,-4.0407,2.92729,1046.49,-106.541,-34.9181,1039.88,568.115,0,0,0.00120473,0.0001817,-0.00816394,0.660006,-0.165923,0.685092,0,0
183,-0.488371,-2.51838,-4.05117,2.9424,1034.7,-104.216,-32.094,1028.36,569.204,0,0,0.00120473,0.0001817,-0.00685155,0.653686,-0.156049,0.676408,0,0
184,-0.477483,-2.51838,-4.06164,2.95751,1022.91,-101.89,-29.2699,1016.83,570.292,0,0,0.00120473,0.0001817,-0.00553912,0.647364,-0.146175,0.667724,0,0
185,-0.466595,-2.51837,-4.07211,2.97261,1011.13,-99.5647,-26.4458,1005.31,571.381,0,0,0.00120473,0.0001817,-0.00422675,0.641043,-0.136302,0.65904,0,0
186,-0.455706,-2.51837,-4.08258,2.98772,1001.56,-102.107,-27.9505,995.065,568.023,0,0,0.00120473,0.0001817,-0.0028301,0.656429,-0.13055,0.672858,0,0
187,-0.444818,-2.51836,-4.09305,3.00282,993.319,-107.532,-32.0187,985.583,562.032,0,0,0.00120473,0.0001817,-0.00138356,0.684671,-0.12724,0.700002,0,0
188,-0.43393,-2.51836,-4.10352,3.01793,985.075,-112.956,-36.0869,976.103,556.041,0,0,0.00120473,0.0001817,6.29E-05,0.712913,-0.123931,0.727146,0,0
189,-0.423041,-2.51836,-4.11399,3.03304,976.83,-118.381,-40.1552,966.622,550.05,0,0,0.00120473,0.0001817,0.00150946,0.741156,-0.120621,0.75429,0,0
190,-0.412153,-2.51835,-4.12447,3.04814,968.585,-123.806,-44.2233,957.14,544.059,0,0,0.00120473,0.0001817,0.00295593,0.769397,-0.117311,0.781434,0,0
191,-0.401265,-2.51835,-4.13494,3.06325,960.341,-129.231,-48.2916,947.66,538.068,0,0,0.00120473,0.0001817,0.00440249,0.79764,-0.114001,0.808578,0,0
192,-0.390376,-2.51835,-4.14541,3.07836,952.096,-134.656,-52.3599,938.179,532.077,0,0,0.00120473,0.0001817,0.00584902,0.825882,-0.110691,0.835722,0,0
193,-0.379488,-2.51834,-4.15588,3.09346,943.851,-140.08,-56.428,928.697,526.086,0,0,0.00120473,0.0001817,0.00729549,0.854123,-0.107382,0.862866,0,0
194,-0.368599,-2.51834,-4.16635,3.10857,937.994,-136.397,-56.7817,923.057,525.946,0,0,0.00120473,0.0001817,0.00692419,0.854608,-0.108568,0.864027,0,0
195,-0.357711,-2.51834,-4.17682,3.12367,919.082,-137.14,-59.8774,902.941,513.693,0,0,0.00120473,0.0001817,0.00777499,0.862744,-0.0933776,0.868645,0,0
196,-0.346823,-2.51833,-4.18729,3.13878,944.397,-134.54,-66.1082,927.82,508.836,0,0,0.00120473,0.0001817,0.00862544,0.879766,-0.0863589,0.884827,0,0
197,-0.335934,-2.51833,-4.19776,3.15389,956.937,-132.338,-70.1972,939.905,501.936,0,0,0.00120473,0.0001817,0.0094141,0.883623,-0.0772397,0.887846,0,0
198,-0.325046,-2.51832,-4.20824,3.16899,965.538,-130.258,-73.6253,948.044,494.406,0,0,0.00120473,0.0001817,0.0101837,0.883421,-0.0674727,0.886806,0,0
199,-0.314158,-2.51832,-4.21871,3.1841,974.14,-128.179,-77.0537,956.185,486.877,0,0,0.00120473,0.0001817,0.0109533,0.883218,-0.0577057,0.885765,0,0
200,-0.303269,-2.51832,-4.22918,3.19921,980.983,-122.43,-84.2659,962.463,472.722,0,0,0.00120473,0.0001817,0.0101083,0.885992,-0.0536706,0.888267,0,0
201,-0.292381,-2.51831,-4.23965,3.21431,987.376,-115.74,-92.4495,968.265,456.867,0,0,0.00120473,0.0001817,0.0088491,0.889531,-0.0511064,0.891677,0,0
202,-0.273657,-2.51832,-4.23937,3.23304,978.995,-106.108,-95.1498,960.123,455.97,0,0,0.00120473,0.0001817,0.00722777,0.887322,-0.0455494,0.889333,0,0
203,-0.254934,-2.51833,-4.2391,3.25176,970.615,-96.476,-97.8503,951.982,455.071,0,0,0.00120473,0.0001817,0.00560643,0.885113,-0.0399925,0.88699,0,0
204,-0.23621,-2.51834,-4.23882,3.27049,962.235,-86.8442,-100.551,943.841,454.174,0,0,0.00120473,0.0001817,0.0039851,0.882904,-0.0344355,0.884646,0,0
205,-0.217486,-2.51835,-4.23855,3.28922,953.855,-77.2124,-103.251,935.7,453.276,0,0,0.00120473,0.0001817,0.00236376,0.880695,-0.0288786,0.882303,0,0
206,-0.198763,-2.51836,-4.23827,3.30794,945.474,-67.5806,-105.951,927.558,452.379,0,0,0.00120473,0.0001817,0.000742436,0.878486,-0.0233216,0.879959,0,0
207,-0.180039,-2.51837,-4.23799,3.32667,937.095,-57.9488,-108.652,919.417,451.481,0,0,0.00120473,0.0001817,-0.00087889,0.876277,-0.0177646,0.877615,0,0
208,-0.161315,-2.51837,-4.23772,3.34539,928.714,-48.317,-111.352,911.276,450.583,0,0,0.00120473,0.0001817,-0.00250023,0.874069,-0.0122077,0.875272,0,0
209,-0.142592,-2.51838,-4.23744,3.36412,920.334,-38.6852,-114.052,903.134,449.686,0,0,0.00120473,0.0001817,-0.00412156,0.87186,-0.0066507,0.872928,0,0
210,-0.123868,-2.51839,-4.23717,3.38284,911.953,-29.0534,-116.753,894.993,448.788,0,0,0.00120473,0.0001817,-0.0057429,0.869651,-0.00109375,0.870585,0,0
211,-0.105144,-2.5184,-4.23689,3.40157,903.573,-19.4216,-119.453,886.851,447.89,0,0,0.00120473,0.0001817,-0.00736423,0.867442,0.00446323,0.868241,0,0
212,-0.0864204,-2.51841,-4.23661,3.4203,895.193,-9.78979,-122.153,878.71,446.993,0,0,0.00120473,0.0001817,-0.00898555,0.865233,0.0100202,0.865897,0,0
213,-0.0676967,-2.51842,-4.23634,3.43902,886.813,-0.157973,-124.854,870.569,446.095,0,0,0.00120473,0.0001817,-0.0106069,0.863024,0.0155771,0.863554,0,0
214,-0.048973,-2.51842,-4.23606,3.45775,873.599,4.67839,-122.88,857.511,446.452,0,0,0.00120473,0.0001817,-0.0120359,0.846365,0.0245259,0.847185,0,0
215,-0.0302493,-2.51843,-4.23579,3.47647,901.228,12.1603,-125.633,885.125,453.428,0,0,0.00120473,0.0001817,-0.0134823,0.859273,0.0350039,0.861024,0,0
216,-0.0115256,-2.51844,-4.23551,3.4952,911.571,21.2065,-127.671,894.345,451.471,0,0,0.00120473,0.0001817,-0.0142077,0.860602,0.0406121,0.862741,0,0
217,0.00719807,-2.51845,-4.23523,3.51392,921.914,30.2527,-129.71,903.564,449.513,0,0,0.00120473,0.0001817,-0.0149331,0.861931,0.0462204,0.864457,0,0
218,0.0259218,-2.51846,-4.23496,3.53265,932.258,39.2989,-131.748,912.784,447.555,0,0,0.00120473,0.0001817,-0.0156585,0.86326,0.0518287,0.866174,0,0
219,0.0446455,-2.51847,-4.23468,3.55138,942.602,48.3451,-133.787,922.004,445.597,0,0,0.00120473,0.0001817,-0.0163839,0.864589,0.0574369,0.867891,0,0
220,0.0633692,-2.51848,-4.23441,3.5701,952.947,57.3913,-135.826,931.225,443.639,0,0,0.00120473,0.0001817,-0.0171094,0.865919,0.0630453,0.869608,0,0
221,0.0820929,-2.51848,-4.23413,3.58883,963.29,66.4375,-137.864,940.445,441.682,0,0,0.00120473,0.0001817,-0.0178348,0.867248,0.0686535,0.871325,0,0
222,0.0917436,-2.5185,-4.2192,3.60661,948.804,71.1323,-130.697,926.237,459.651,0,0,0.00120473,0.0001817,-0.0176995,0.861681,0.0705065,0.865764,0,0
223,0.101394,-2.51852,-4.20426,3.62439,934.32,75.827,-123.529,912.031,477.621,0,0,0.00120473,0.0001817,-0.0175643,0.856115,0.0723596,0.860204,0,0
224,0.111045,-2.51853,-4.18933,3.64217,919.835,80.5218,-116.362,897.825,495.591,0,0,0.00120473,0.0001817,-0.0174291,0.850548,0.0742127,0.854643,0,0
225,0.120696,-2.51855,-4.17439,3.65995,891.645,86.4179,-110.007,869.016,503.429,0,0,0.00120473,0.0001817,-0.017706,0.848883,0.0691219,0.852227,0,0
226,0.130347,-2.51857,-4.15946,3.67773,893.39,86.8288,-104.803,872.216,520.907,0,0,0.00120473,0.0001817,-0.0153721,0.840443,0.0713502,0.844086,0,0
227,0.139997,-2.51858,-4.14453,3.69551,895.137,87.2399,-99.5983,875.417,538.385,0,0,0.00120473,0.0001817,-0.0130382,0.832004,0.0735786,0.835946,0,0
228,0.149648,-2.5186,-4.12959,3.71329,896.883,87.6509,-94.3939,878.618,555.862,0,0,0.00120473,0.0001817,-0.0107043,0.823565,0.0758069,0.827806,0,0
229,0.159299,-2.51862,-4.11466,3.73108,901.488,86.655,-87.3047,885.179,575.292,0,0,0.00120473,0.0001817,-0.00843924,0.811287,0.0774109,0.815781,0,0
230,0.16895,-2.51863,-4.09972,3.74886,908.39,84.5282,-78.7006,894.441,596.292,0,0,0.00120473,0.0001817,-0.00622957,0.795923,0.078513,0.800635,0,0
231,0.1786,-2.51865,-4.08479,3.76664,915.293,82.4015,-70.0965,903.704,617.292,0,0,0.00120473,0.0001817,-0.00401992,0.78056,0.0796152,0.785489,0,0
232,0.188251,-2.51866,-4.06986,3.78442,922.196,80.2749,-61.4925,912.967,638.291,0,0,0.00120473,0.0001817,-0.00181026,0.765196,0.0807174,0.770343,0,0
233,0.197902,-2.51868,-4.05492,3.8022,929.099,78.1479,-52.8881,922.229,659.292,0,0,0.00120473,0.0001817,0.000399463,0.749832,0.0818195,0.755196,0,0
234,0.207553,-2.5187,-4.03999,3.81998,936.294,78.4759,-50.0881,930.344,671.953,0,0,0.00120473,0.0001817,0.00211914,0.742415,0.083419,0.748002,0,0
235,0.217203,-2.51871,-4.02505,3.83776,943.741,80.8963,-52.2354,937.481,677.507,0,0,0.00120473,0.0001817,0.00342114,0.741772,0.0854424,0.747586,0,0
236,0.226854,-2.51873,-4.01012,3.85554,950.647,82.4633,-53.7383,944.112,676.441,0,0,0.00120473,0.0001817,0.00487623,0.740026,0.0871348,0.746039,0,0
237,0.236505,-2.51875,-3.99518,3.87332,956.866,82.9452,-54.4219,950.098,666.959,0,0,0.00120473,0.0001817,0.00652599,0.736875,0.088406,0.743052,0,0
238,0.246156,-2.51876,-3.98025,3.8911,963.085,83.427,-55.1055,956.084,657.476,0,0,0.00120473,0.0001817,0.00817575,0.733725,0.0896772,0.740065,0,0
239,0.255807,-2.51878,-3.96532,3.90889,969.195,83.8953,-55.7393,961.964,648.095,0,0,0.00120473,0.0001817,0.00983189,0.73062,0.0909474,0.737123,0,0
240,0.265457,-2.51879,-3.95038,3.92667,961.808,82.6858,-50.2211,954.623,651.273,0,0,0.00120473,0.0001817,0.0122779,0.733073,0.0920896,0.739724,0,0
241,0.275108,-2.51881,-3.93545,3.94445,954.421,81.4763,-44.703,947.283,654.452,0,0,0.00120473,0.0001817,0.0147239,0.735526,0.0932317,0.742325,0,0
242,0.279019,-2.51882,-3.92392,3.95662,947.357,79.5979,-40.6898,940.313,655.894,0,0,0.00120473,0.0001817,0.0163419,0.73642,0.0933118,0.743255,0,0
243,0.282931,-2.51883,-3.9124,3.96879,940.293,77.7196,-36.6767,933.344,657.337,0,0,0.00120473,0.0001817,0.0179599,0.737315,0.0933919,0.744184,0,0
244,0.286842,-2.51884,-3.90088,3.98096,933.228,75.8412,-32.6635,926.374,658.779,0,0,0.00120473,0.0001817,0.019578,0.738209,0.0934719,0.745114,0,0
245,0.290753,-2.51886,-3.88935,3.99313,926.164,73.9629,-28.6504,919.405,660.222,0,0,0.00120473,0.0001817,0.0211959,0.739103,0.093552,0.746044,0,0
246,0.294665,-2.51887,-3.87783,4.00529,919.1,72.0845,-24.6372,912.435,661.665,0,0,0.00120473,0.0001817,0.0228139,0.739998,0.0936321,0.746974,0,0
247,0.298576,-2.51888,-3.86631,4.01746,912.036,70.2062,-20.6241,905.466,663.107,0,0,0.00120473,0.0001817,0.024432,0.740892,0.0937122,0.747904,0,0
248,0.302487,-2.51889,-3.85478,4.02963,904.973,68.3278,-16.6109,898.497,664.55,0,0,0.00120473,0.0001817,0.02605,0.741787,0.0937923,0.748834,0,0
249,0.306398,-2.5189,-3.84326,4.0418,897.903,66.1368,-12.7345,891.543,665.366,0,0,0.00120473,0.0001817,0.027639,0.742058,0.0937853,0.749136,0,0
250,0.31031,-2.51891,-3.83174,4.05397,890.832,63.8474,-8.90105,884.595,665.985,0,0,0.00120473,0.0001817,0.0292188,0.742134,0.093751,0.749242,0,0
251,0.314221,-2.51892,-3.82021,4.06614,884.153,61.7349,-5.02644,878.026,666.663,0,0,0.00120473,0.0001817,0.03077,0.742372,0.093912,0.749559,0,0
252,0.318132,-2.51893,-3.80869,4.07831,879.145,60.3763,-0.976302,873.066,667.595,0,0,0.00120473,0.0001817,0.0321992,0.743301,0.094905,0.750774,0,0
253,0.322044,-2.51894,-3.79716,4.09048,874.137,59.0176,3.07391,868.105,668.526,0,0,0.00120473,0.0001817,0.0336285,0.744231,0.0958981,0.75199,0,0
254,0.325955,-2.51895,-3.78564,4.10265,869.128,57.6588,7.12416,863.144,669.457,0,0,0.00120473,0.0001817,0.0350577,0.74516,0.0968911,0.753205,0,0
255,0.329866,-2.51897,-3.77412,4.11482,864.343,55.9819,11.4192,858.476,670.352,0,0,0.00120473,0.0001817,0.0364093,0.744796,0.0971847,0.753005,0,0
256,0.333777,-2.51898,-3.76259,4.12699,859.632,54.1984,15.7963,853.906,671.233,0,0,0.00120473,0.0001817,0.0377349,0.744,0.0972441,0.752332,0,0
257,0.337689,-2.51899,-3.75107,4.13916,854.921,52.4149,20.1734,849.336,672.115,0,0,0.00120473,0.0001817,0.0390604,0.743204,0.0973035,0.751659,0,0
258,0.3416,-2.519,-3.73955,4.15133,850.211,50.6315,24.5503,844.766,672.996,0,0,0.00120473,0.0001817,0.040386,0.742407,0.0973629,0.750986,0,0
259,0.345511,-2.51901,-3.72802,4.1635,845.499,48.8479,28.9274,840.194,673.878,0,0,0.00120473,0.0001817,0.0417116,0.741611,0.0974224,0.750313,0,0
260,0.349423,-2.51902,-3.7165,4.17567,840.789,47.0644,33.3044,835.624,674.759,0,0,0.00120473,0.0001817,0.0430371,0.740815,0.0974818,0.749639,0,0
261,0.353334,-2.51903,-3.70497,4.18784,836.078,45.2809,37.6815,831.054,675.641,0,0,0.00120473,0.0001817,0.0443627,0.740018,0.0975412,0.748966,0,0
262,0.340654,-2.51903,-3.69546,4.20369,818.9,39.0821,39.6801,814.208,674.443,0,0,0.00120473,0.0001817,0.0450797,0.738723,0.0928377,0.746909,0,0
263,0.327974,-2.51904,-3.68595,4.21954,801.722,32.8833,41.6788,797.364,673.244,0,0,0.00120473,0.0001817,0.0457968,0.737428,0.0881341,0.744852,0,0
264,0.315294,-2.51904,-3.67644,4.23539,784.543,26.6845,43.6774,780.518,672.045,0,0,0.00120473,0.0001817,0.0465138,0.736133,0.0834305,0.742795,0,0
265,0.302614,-2.51904,-3.66692,4.25124,767.608,20.4761,45.6896,763.878,671.019,0,0,0.00120473,0.0001817,0.0472223,0.73173,0.0795355,0.737837,0,0
266,0.289934,-2.51904,-3.65741,4.26709,754.88,14.6688,47.6909,751.458,667.733,0,0,0.00120473,0.0001817,0.0474505,0.7284,0.0762734,0.734213,0,0
267,0.277254,-2.51904,-3.6479,4.28295,742.596,8.91099,49.6879,739.491,664.142,0,0,0.00120473,0.0001817,0.0476238,0.725889,0.0729064,0.731391,0,0
268,0.264574,-2.51905,-3.63839,4.2988,730.311,3.15319,51.6849,727.524,660.551,0,0,0.00120473,0.0001817,0.0477971,0.723378,0.0695394,0.72857,0,0
269,0.251894,-2.51905,-3.62887,4.31465,718.736,-2.40597,53.4055,716.249,656.191,0,0,0.00120473,0.0001817,0.0480457,0.722475,0.0664118,0.727371,0,0
270,0.239214,-2.51905,-3.61936,4.3305,716.563,-3.59286,53.4008,714.069,645.471,0,0,0.00120473,0.0001817,0.0455911,0.72026,0.0636491,0.724904,0,0
271,0.226534,-2.51905,-3.60985,4.34635,716.489,-4.54912,52.8633,713.98,634.181,0,0,0.00120473,0.0001817,0.0431116,0.716538,0.060776,0.720942,0,0
272,0.213854,-2.51905,-3.60034,4.3622,716.472,-5.50046,52.3105,713.949,622.875,0,0,0.00120473,0.0001817,0.0406333,0.712781,0.0579006,0.716946,0,0
273,0.201174,-2.51906,-3.59082,4.37805,716.455,-6.45179,51.7576,713.917,611.57,0,0,0.00120473,0.0001817,0.038155,0.709025,0.0550253,0.71295,0,0
274,0.188494,-2.51906,-3.58131,4.39391,716.439,-7.40313,51.2047,713.886,600.264,0,0,0.00120473,0.0001817,0.0356768,0.705269,0.0521499,0.708954,0,0
275,0.175814,-2.51906,-3.5718,4.40976,716.422,-8.35446,50.6518,713.854,588.958,0,0,0.00120473,0.0001817,0.0331985,0.701512,0.0492746,0.704958,0,0
276,0.163134,-2.51906,-3.56229,4.42561,716.405,-9.3058,50.0989,713.822,577.652,0,0,0.00120473,0.0001817,0.0307202,0.697755,0.0463992,0.700962,0,0
277,0.150454,-2.51906,-3.55277,4.44146,716.388,-10.2571,49.546,713.791,566.347,0,0,0.00120473,0.0001817,0.0282419,0.693999,0.0435239,0.696966,0,0
278,0.137774,-2.51907,-3.54326,4.45731,716.371,-11.2085,48.9931,713.759,555.041,0,0,0.00120473,0.0001817,0.0257636,0.690242,0.0406485,0.692969,0,0
279,0.125094,-2.51907,-3.53375,4.47316,716.354,-12.1598,48.4401,713.727,543.735,0,0,0.00120473,0.0001817,0.0232853,0.686486,0.0377731,0.688973,0,0
280,0.112414,-2.51907,-3.52423,4.48902,716.338,-13.1111,47.8873,713.696,532.429,0,0,0.00120473,0.0001817,0.020807,0.682729,0.0348978,0.684977,0,0
281,0.0997337,-2.51907,-3.51472,4.50487,716.321,-14.0625,47.3344,713.664,521.123,0,0,0.00120473,0.0001817,0.0183287,0.678973,0.0320224,0.680981,0,0
282,0.0850954,-2.51906,-3.51949,4.52026,716.597,-16.0812,43.557,714.033,515.563,0,0,0.00120473,0.0001817,0.0163952,0.674061,0.0291005,0.675808,0,0
283,0.0704572,-2.51905,-3.52426,4.53566,716.875,-18.0999,39.7797,714.403,510.002,0,0,0.00120473,0.0001817,0.0144616,0.669149,0.0261785,0.670635,0,0
284,0.0558189,-2.51904,-3.52903,4.55105,717.151,-20.1186,36.0023,714.772,504.441,0,0,0.00120473,0.0001817,0.012528,0.664237,0.0232565,0.665462,0,0
285,0.0411807,-2.51903,-3.5338,4.56645,717.428,-22.1373,32.225,715.141,498.881,0,0,0.00120473,0.0001817,0.0105944,0.659325,0.0203345,0.660289,0,0
286,0.0265424,-2.51902,-3.53857,4.58185,717.705,-24.156,28.4476,715.51,493.32,0,0,0.00120473,0.0001817,0.00866087,0.654413,0.0174126,0.655116,0,0
287,0.0119042,-2.51901,-3.54334,4.59724,717.675,-25.9801,24.9122,715.549,488.437,0,0,0.00120473,0.0001817,0.00676601,0.650559,0.0143143,0.651074,0,0
288,-0.00273405,-2.519,-3.54811,4.61264,716.294,-26.9459,22.4431,714.133,486.544,0,0,0.00120473,0.0001817,0.00504182,0.651372,0.0104389,0.652021,0,0
289,-0.0173723,-2.51899,-3.55288,4.62803,714.914,-27.9117,19.974,712.716,484.652,0,0,0.00120473,0.0001817,0.00331762,0.652184,0.00656346,0.652968,0,0
290,-0.0320105,-2.51898,-3.55765,4.64343,713.533,-28.8775,17.505,711.3,482.759,0,0,0.00120473,0.0001817,0.00159344,0.652997,0.00268805,0.653915,0,0
291,-0.0466488,-2.51897,-3.56242,4.65882,712.152,-29.8433,15.0359,709.883,480.866,0,0,0.00120473,0.0001817,-0.000130754,0.65381,-0.00118738,0.654862,0,0
292,-0.061287,-2.51896,-3.56719,4.67422,710.771,-30.8091,12.5668,708.466,478.974,0,0,0.00120473,0.0001817,-0.00185494,0.654622,-0.00506282,0.655809,0,0
293,-0.0759253,-2.51895,-3.57196,4.68962,709.391,-31.7749,10.0978,707.05,477.081,0,0,0.00120473,0.0001817,-0.00357912,0.655435,-0.00893823,0.656756,0,0
294,-0.0905635,-2.51894,-3.57673,4.70501,708.01,-32.7407,7.62871,705.633,475.188,0,0,0.00120473,0.0001817,-0.00530331,0.656247,-0.0128137,0.657703,0,0
295,-0.105202,-2.51893,-3.5815,4.72041,706.629,-33.7065,5.15963,704.216,473.295,0,0,0.00120473,0.0001817,-0.00702751,0.65706,-0.0166891,0.65865,0,0
296,-0.11984,-2.51892,-3.58627,4.7358,705.249,-34.6723,2.69062,702.8,471.403,0,0,0.00120473,0.0001817,-0.00875169,0.657872,-0.0205645,0.659597,0,0
297,-0.134478,-2.51891,-3.59104,4.7512,703.868,-35.6381,0.22154,701.383,469.51,0,0,0.00120473,0.0001817,-0.0104759,0.658685,-0.0244399,0.660543,0,0
298,-0.149116,-2.5189,-3.5958,4.76659,702.487,-36.6039,-2.24754,699.966,467.617,0,0,0.00120473,0.0001817,-0.0122001,0.659497,-0.0283154,0.66149,0,0
299,-0.163755,-2.51889,-3.60057,4.78199,701.106,-37.5697,-4.71663,698.55,465.724,0,0,0.00120473,0.0001817,-0.0139243,0.66031,-0.0321908,0.662437,0,0
300,-0.178393,-2.51888,-3.60534,4.79739,699.725,-38.5355,-7.18563,697.133,463.832,0,0,0.00120473,0.0001817,-0.0156485,0.661122,-0.0360662,0.663384,0,0
301,-0.193031,-2.51887,-3.61011,4.81278,698.344,-39.5013,-9.65471,695.717,461.939,0,0,0.00120473,0.0001817,-0.0173727,0.661935,-0.0399417,0.664331,0,0
302,-0.199272,-2.51885,-3.62567,4.82954,697.892,-40.6279,-13.3082,695.333,467.823,0,0,0.00120473,0.0001817,-0.0172967,0.662196,-0.0413208,0.664691,0,0
303,-0.205512,-2.51884,-3.64122,4.8463,697.439,-41.7545,-16.9616,694.95,473.708,0,0,0.00120473,0.0001817,-0.0172208,0.662457,-0.0426999,0.665051,0,0
304,-0.211753,-2.51882,-3.65677,4.86305,696.987,-42.8811,-20.615,694.567,479.593,0,0,0.00120473,0.0001817,-0.0171449,0.662719,-0.0440789,0.665412,0,0
305,-0.217993,-2.5188,-3.67232,4.87981,696.534,-44.0077,-24.2684,694.184,485.477,0,0,0.00120473,0.0001817,-0.0170689,0.66298,-0.045458,0.665772,0,0
306,-0.224233,-2.51879,-3.68788,4.89657,695.476,-44.1629,-25.4602,693.262,490.436,0,0,0.00120473,0.0001817,-0.0168979,0.661904,-0.0452074,0.664787,0,0
307,-0.230474,-2.51877,-3.70343,4.91333,693.537,-42.9023,-23.0638,691.554,494.045,0,0,0.00120473,0.0001817,-0.0165883,0.658879,-0.0425811,0.661839,0,0
308,-0.236714,-2.51876,-3.71898,4.93009,691.598,-41.6416,-20.6673,689.846,497.654,0,0,0.00120473,0.0001817,-0.0162786,0.655854,-0.0399548,0.658892,0,0
309,-0.242955,-2.51874,-3.73453,4.94684,692.137,-39.7953,-21.8819,690.395,504.377,0,0,0.00120473,0.0001817,-0.0181659,0.659607,-0.040549,0.662679,0,0
310,-0.249195,-2.51873,-3.75009,4.9636,692.709,-37.9412,-23.1447,690.975,511.141,0,0,0.00120473,0.0001817,-0.0200825,0.66345,-0.0411861,0.666557,0,0
311,-0.255436,-2.51871,-3.76564,4.98036,693.281,-36.087,-24.4075,691.554,517.905,0,0,0.00120473,0.0001817,-0.0219991,0.667294,-0.0418232,0.670434,0,0
312,-0.261676,-2.5187,-3.78119,4.99712,688.357,-34.9548,-24.2414,686.586,523.195,0,0,0.00120473,0.0001817,-0.0226163,0.673562,-0.0434772,0.676776,0,0
313,-0.267917,-2.51868,-3.79674,5.01388,681.855,-34.0297,-23.6654,680.027,528.062,0,0,0.00120473,0.0001817,-0.0228608,0.680525,-0.0454228,0.683825,0,0
314,-0.274157,-2.51867,-3.8123,5.03063,675.354,-33.1045,-23.0895,673.467,532.929,0,0,0.00120473,0.0001817,-0.0231053,0.687487,-0.0473684,0.690875,0,0
315,-0.280398,-2.51865,-3.82785,5.04739,676.245,-34.2607,-22.4493,674.247,539.399,0,0,0.00120473,0.0001817,-0.0227816,0.694457,-0.0513555,0.698137,0,0
316,-0.286638,-2.51864,-3.8434,5.06415,686.066,-37.9313,-21.7317,683.892,547.807,0,0,0.00120473,0.0001817,-0.0217714,0.701433,-0.0578088,0.705658,0,0
317,-0.292878,-2.51862,-3.85895,5.08091,695.886,-41.6019,-21.014,693.537,556.214,0,0,0.00120473,0.0001817,-0.0207613,0.70841,-0.064262,0.713178,0,0
318,-0.299119,-2.51861,-3.87451,5.09767,705.707,-45.2725,-20.2963,703.182,564.62,0,0,0.00120473,0.0001817,-0.0197512,0.715387,-0.0707152,0.720699,0,0
319,-0.305359,-2.51859,-3.89006,5.11442,715.527,-48.9431,-19.5786,712.827,573.028,0,0,0.00120473,0.0001817,-0.0187411,0.722364,-0.0771685,0.728219,0,0
320,-0.3116,-2.51858,-3.90561,5.13118,725.349,-52.6138,-18.861,722.474,581.435,0,0,0.00120473,0.0001817,-0.0177309,0.729341,-0.0836218,0.73574,0,0
321,-0.31784,-2.51856,-3.92116,5.14794,735.17,-56.2844,-18.1433,732.119,589.842,0,0,0.00120473,0.0001817,-0.0167208,0.736317,-0.0900751,0.74326,0,0
322,-0.302586,-2.51856,-3.9237,5.1634,730.926,-51.5796,-17.8088,728.067,594.614,0,0,0.00120473,0.0001817,-0.0167043,0.734018,-0.0819856,0.740505,0,0
323,-0.287333,-2.51857,-3.92624,5.17887,726.682,-46.8749,-17.4744,724.015,599.387,0,0,0.00120473,0.0001817,-0.0166878,0.731718,-0.0738961,0.737749,0,0
324,-0.272079,-2.51857,-3.92878,5.19433,722.439,-42.1703,-17.1399,719.965,604.16,0,0,0.00120473,0.0001817,-0.0166713,0.729419,-0.0658068,0.734994,0,0
325,-0.256825,-2.51858,-3.93132,5.20979,718.195,-37.4656,-16.8055,715.913,608.933,0,0,0.00120473,0.0001817,-0.0166548,0.72712,-0.0577173,0.732239,0,0
326,-0.241571,-2.51858,-3.93386,5.22526,713.951,-32.7609,-16.471,711.861,613.705,0,0,0.00120473,0.0001817,-0.0166383,0.72482,-0.0496278,0.729484,0,0
327,-0.226317,-2.51859,-3.9364,5.24072,709.707,-28.0561,-16.1365,707.809,618.478,0,0,0.00120473,0.0001817,-0.0166218,0.722521,-0.0415384,0.726728,0,0
328,-0.211063,-2.51859,-3.93894,5.25618,705.463,-23.3514,-15.802,703.758,623.251,0,0,0.00120473,0.0001817,-0.0166053,0.720221,-0.0334489,0.723973,0,0
329,-0.19581,-2.5186,-3.94148,5.27165,701.22,-18.6468,-15.4676,699.707,628.024,0,0,0.00120473,0.0001817,-0.0165888,0.717922,-0.0253596,0.721218,0,0
330,-0.180556,-2.5186,-3.94402,5.28711,696.976,-13.9421,-15.1331,695.655,632.796,0,0,0.00120473,0.0001817,-0.0165723,0.715623,-0.0172701,0.718463,0,0
331,-0.165302,-2.51861,-3.94655,5.30258,692.732,-9.23734,-14.7987,691.603,637.569,0,0,0.00120473,0.0001817,-0.0165558,0.713323,-0.00918062,0.715707,0,0
332,-0.150048,-2.51861,-3.94909,5.31804,698.338,-7.30611,-14.3787,697.331,644.478,0,0,0.00120473,0.0001817,-0.0157822,0.711032,-0.00381143,0.713236,0,0
333,-0.134794,-2.51862,-3.95163,5.3335,704.564,-5.54953,-13.9533,703.675,651.521,0,0,0.00120473,0.0001817,-0.0149609,0.708742,0.00138643,0.710783,0,0
334,-0.11954,-2.51862,-3.95417,5.34897,710.791,-3.79297,-13.528,710.019,658.565,0,0,0.00120473,0.0001817,-0.0141396,0.706451,0.00658427,0.708331,0,0
335,-0.104287,-2.51863,-3.95671,5.36443,717.018,-2.03639,-13.1026,716.363,665.608,0,0,0.00120473,0.0001817,-0.0133183,0.704161,0.0117821,0.705878,0,0
336,-0.0890327,-2.51863,-3.95925,5.37989,723.244,-0.279807,-12.6772,722.706,672.652,0,0,0.00120473,0.0001817,-0.012497,0.70187,0.01698,0.703425,0,0
337,-0.0737789,-2.51864,-3.96179,5.39536,725.932,1.01198,-11.3319,725.478,678.746,0,0,0.00120473,0.0001817,-0.0108391,0.70114,0.0215232,0.702558,0,0
338,-0.058525,-2.51864,-3.96433,5.41082,727.615,2.17184,-9.7254,727.236,684.571,0,0,0.00120473,0.0001817,-0.0089437,0.700853,0.0258806,0.702143,0,0
339,-0.0432712,-2.51864,-3.96687,5.42629,729.298,3.33167,-8.11893,728.994,690.396,0,0,0.00120473,0.0001817,-0.00704832,0.700567,0.0302379,0.701727,0,0
340,-0.0280174,-2.51865,-3.9694,5.44175,730.981,4.49153,-6.51244,730.752,696.221,0,0,0.00120473,0.0001817,-0.00515295,0.70028,0.0345952,0.701312,0,0
341,-0.0127635,-2.51865,-3.97194,5.45721,731.49,4.10031,-6.50761,731.258,704.668,0,0,0.00120473,0.0001817,-0.0035995,0.708564,0.0352125,0.709572,0,0
342,-0.00565677,-2.51867,-3.96227,5.46922,730.967,2.48039,-6.01958,730.714,702.469,0,0,0.00120473,0.0001817,-0.0021097,0.709507,0.034959,0.710509,0,0
343,0.00144999,-2.51868,-3.95259,5.48122,730.445,0.860443,-5.53154,730.169,700.271,0,0,0.00120473,0.0001817,-0.000619886,0.710449,0.0347055,0.711446,0,0
344,0.00855675,-2.51869,-3.94291,5.49323,729.922,-0.759475,-5.04352,729.625,698.072,0,0,0.00120473,0.0001817,0.000869913,0.711391,0.034452,0.712384,0,0
345,0.0156635,-2.5187,-3.93324,5.50524,729.399,-2.37939,-4.55549,729.081,695.874,0,0,0.00120473,0.0001817,0.00235971,0.712334,0.0341985,0.713321,0,0
346,0.0227703,-2.51871,-3.92356,5.51724,729.481,-3.75025,-4.19137,729.123,693.207,0,0,0.00120473,0.0001817,0.0038063,0.712945,0.0340878,0.713942,0,0
347,0.029877,-2.51872,-3.91388,5.52925,734.355,-3.14593,-4.80991,733.822,686.827,0,0,0.00120473,0.0001817,0.0049102,0.710933,0.0351098,0.712055,0,0
348,0.0369838,-2.51873,-3.9042,5.54126,739.229,-2.54164,-5.42843,738.52,680.447,0,0,0.00120473,0.0001817,0.00601411,0.70892,0.0361318,0.710168,0,0
349,0.0440906,-2.51874,-3.89453,5.55326,744.102,-1.93731,-6.04697,743.218,674.067,0,0,0.00120473,0.0001817,0.00711801,0.706908,0.0371538,0.708281,0,0
350,0.0511973,-2.51875,-3.88485,5.56527,748.976,-1.33298,-6.66551,747.917,667.687,0,0,0.00120473,0.0001817,0.0082219,0.704896,0.0381758,0.706394,0,0
351,0.0583041,-2.51876,-3.87517,5.57728,753.851,-0.728645,-7.28406,752.616,661.307,0,0,0.00120473,0.0001817,0.00932581,0.702883,0.0391978,0.704507,0,0
352,0.0654108,-2.51877,-3.8655,5.58928,758.725,-0.124316,-7.9026,757.314,654.927,0,0,0.00120473,0.0001817,0.0104297,0.700871,0.0402198,0.70262,0,0
353,0.0725176,-2.51879,-3.85582,5.60129,763.599,0.480015,-8.52114,762.012,648.548,0,0,0.00120473,0.0001817,0.0115336,0.698859,0.0412418,0.700733,0,0
354,0.0796244,-2.5188,-3.84614,5.61329,768.472,1.08434,-9.13968,766.711,642.168,0,0,0.00120473,0.0001817,0.0126375,0.696846,0.0422638,0.698847,0,0
355,0.0867311,-2.51881,-3.83647,5.6253,773.346,1.68867,-9.75822,771.409,635.788,0,0,0.00120473,0.0001817,0.0137414,0.694834,0.0432858,0.696959,0,0
356,0.0938379,-2.51882,-3.82679,5.63731,778.22,2.29296,-10.3767,776.107,629.408,0,0,0.00120473,0.0001817,0.0148453,0.692821,0.0443078,0.695072,0,0
357,0.100945,-2.51883,-3.81711,5.64931,783.094,2.89729,-10.9953,780.806,623.028,0,0,0.00120473,0.0001817,0.0159492,0.690809,0.0453298,0.693186,0,0
358,0.108051,-2.51884,-3.80743,5.66132,787.967,3.50162,-11.6138,785.504,616.648,0,0,0.00120473,0.0001817,0.0170531,0.688797,0.0463518,0.691298,0,0
359,0.115158,-2.51885,-3.79776,5.67333,790.277,3.78716,-11.0636,787.691,612.654,0,0,0.00120473,0.0001817,0.0183071,0.68784,0.0473494,0.690464,0,0
360,0.122265,-2.51886,-3.78808,5.68533,785.82,3.2315,-7.42894,783.249,614.957,0,0,0.00120473,0.0001817,0.019957,0.689671,0.0482829,0.69241,0,0
361,0.129372,-2.51887,-3.7784,5.69734,781.362,2.67584,-3.79424,778.808,617.26,0,0,0.00120473,0.0001817,0.021607,0.691501,0.0492163,0.694355,0,0
362,0.147551,-2.51889,-3.77041,5.7172,782.429,5.50698,0.0605982,779.684,622.679,0,0,0.00120473,0.0001817,0.023908,0.69649,0.0527769,0.699712,0,0
363,0.165731,-2.5189,-3.76242,5.73706,783.496,8.33812,3.91547,780.561,628.097,0,0,0.00120473,0.0001817,0.0262089,0.701478,0.0563375,0.70507,0,0
364,0.183911,-2.51892,-3.75442,5.75692,784.562,11.1692,7.77038,781.437,633.515,0,0,0.00120473,0.0001817,0.0285099,0.706467,0.0598981,0.710427,0,0
365,0.20209,-2.51893,-3.74643,5.77678,785.629,14.0003,11.6252,782.313,638.934,0,0,0.00120473,0.0001817,0.0308109,0.711455,0.0634587,0.715784,0,0
366,0.22027,-2.51895,-3.73843,5.79664,786.696,16.8315,15.4801,783.189,644.352,0,0,0.00120473,0.0001817,0.0331118,0.716444,0.0670192,0.721141,0,0
367,0.23845,-2.51896,-3.73044,5.8165,787.763,19.6626,19.3349,784.066,649.77,0,0,0.00120473,0.0001817,0.0354128,0.721432,0.0705798,0.726499,0,0
368,0.25663,-2.51897,-3.72245,5.83635,788.829,22.4937,23.1898,784.942,655.189,0,0,0.00120473,0.0001817,0.0377138,0.726421,0.0741404,0.731856,0,0
369,0.274809,-2.51899,-3.71445,5.85621,789.896,25.3249,27.0447,785.818,660.607,0,0,0.00120473,0.0001817,0.0400147,0.731409,0.077701,0.737213,0,0
370,0.292989,-2.519,-3.70646,5.87607,791.182,28.1248,31.0478,786.93,666.19,0,0,0.00120473,0.0001817,0.0422811,0.735537,0.0811424,0.741699,0,0
371,0.311169,-2.51902,-3.69847,5.89593,796.348,31.0895,35.6505,792.009,670.766,0,0,0.00120473,0.0001817,0.0440593,0.73779,0.0843182,0.744398,0,0
372,0.329348,-2.51903,-3.69047,5.91579,806,34.4475,40.2565,801.547,673.25,0,0,0.00120473,0.0001817,0.0453456,0.737857,0.0889799,0.745391,0,0
373,0.347528,-2.51905,-3.68248,5.93565,815.653,37.8055,44.8624,811.086,675.735,0,0,0.00120473,0.0001817,0.0466318,0.737925,0.0936416,0.746383,0,0
374,0.365708,-2.51906,-3.67448,5.95551,825.305,41.1635,49.4684,820.625,678.219,0,0,0.00120473,0.0001817,0.0479181,0.737992,0.0983033,0.747376,0,0
375,0.383887,-2.51908,-3.66649,5.97537,842.091,43.7917,55.9692,836.883,681.61,0,0,0.00120473,0.0001817,0.0492762,0.738288,0.106861,0.749512,0,0
376,0.402067,-2.51909,-3.6585,5.99523,861.166,46.186,63.0777,855.297,685.292,0,0,0.00120473,0.0001817,0.0506572,0.738658,0.116669,0.752015,0,0
377,0.420247,-2.5191,-3.6505,6.01509,880.24,48.5802,70.1861,873.71,688.974,0,0,0.00120473,0.0001817,0.0520383,0.739027,0.126476,0.754517,0,0
378,0.438426,-2.51912,-3.64251,6.03495,899.314,50.9745,77.2944,892.124,692.656,0,0,0.00120473,0.0001817,0.0534194,0.739397,0.136283,0.75702,0,0
379,0.456606,-2.51913,-3.63451,6.05481,918.388,53.3687,84.4029,910.537,696.339,0,0,0.00120473,0.0001817,0.0548005,0.739766,0.146091,0.759522,0,0
380,0.474786,-2.51915,-3.62652,6.07467,937.463,55.7629,91.5115,928.951,700.021,0,0,0.00120473,0.0001817,0.0561816,0.740136,0.155898,0.762025,0,0
381,0.492966,-2.51916,-3.61853,6.09453,956.537,58.1572,98.6199,947.365,703.703,0,0,0.00120473,0.0001817,0.0575626,0.740505,0.165706,0.764528,0,0
382,0.495009,-2.51915,-3.63469,6.11082,963.106,63.5425,91.5648,954.001,702.573,0,0,0.00120473,0.0001817,0.0558184,0.741721,0.164416,0.765168,0,0
383,0.497052,-2.51914,-3.65085,6.12711,969.675,68.9279,84.5097,960.637,701.444,0,0,0.00120473,0.0001817,0.0540742,0.742937,0.163126,0.765809,0,0
384,0.499096,-2.51913,-3.66701,6.1434,976.243,74.3132,77.4545,967.273,700.315,0,0,0.00120473,0.0001817,0.05233,0.744152,0.161836,0.76645,0,0
385,0.501139,-2.51911,-3.68317,6.15969,982.811,79.6985,70.3994,973.909,699.186,0,0,0.00120473,0.0001817,0.0505858,0.745368,0.160546,0.76709,0,0
386,0.503183,-2.5191,-3.69933,6.17598,989.38,85.0838,63.3443,980.545,698.057,0,0,0.00120473,0.0001817,0.0488416,0.746584,0.159256,0.767731,0,0
387,0.505226,-2.51909,-3.7155,6.19227,995.949,90.4691,56.2894,987.181,696.928,0,0,0.00120473,0.0001817,0.0470974,0.7478,0.157967,0.768372,0,0
388,0.50727,-2.51908,-3.73166,6.20856,1002.52,95.8544,49.2343,993.818,695.799,0,0,0.00120473,0.0001817,0.0453532,0.749015,0.156677,0.769012,0,0
389,0.509313,-2.51907,-3.74782,6.22485,1009.09,101.24,42.1791,1000.45,694.67,0,0,0.00120473,0.0001817,0.043609,0.750231,0.155387,0.769653,0,0
390,0.511356,-2.51905,-3.76398,6.24114,1015.65,106.625,35.124,1007.09,693.541,0,0,0.00120473,0.0001817,0.0418648,0.751447,0.154097,0.770294,0,0
391,0.5134,-2.51904,-3.78014,6.25743,1022.22,112.01,28.0689,1013.73,692.411,0,0,0.00120473,0.0001817,0.0401205,0.752662,0.152807,0.770934,0,0
392,0.515443,-2.51903,-3.7963,6.27372,1034.73,116.788,22.5906,1025.95,692.037,0,0,0.00120473,0.0001817,0.0384361,0.754068,0.15476,0.772526,0,0
393,0.517487,-2.51902,-3.81246,6.29001,1047.62,121.527,17.2161,1038.55,691.712,0,0,0.00120473,0.0001817,0.0367555,0.755487,0.156925,0.774181,0,0
394,0.51953,-2.51901,-3.82863,6.3063,1060.52,126.265,11.8416,1051.15,691.387,0,0,0.00120473,0.0001817,0.035075,0.756906,0.159091,0.775836,0,0
395,0.521574,-2.51899,-3.84479,6.32259,1073.42,131.003,6.46706,1063.74,691.063,0,0,0.00120473,0.0001817,0.0333945,0.758324,0.161257,0.77749,0,0
396,0.523617,-2.51898,-3.86095,6.33888,1086.31,135.741,1.09264,1076.34,690.738,0,0,0.00120473,0.0001817,0.031714,0.759743,0.163423,0.779145,0,0
397,0.52566,-2.51897,-3.87711,6.35517,1099.21,140.479,-4.28187,1088.94,690.413,0,0,0.00120473,0.0001817,0.0300334,0.761162,0.165589,0.7808,0,0
398,0.527704,-2.51896,-3.89327,6.37146,1109.41,143.277,-10.5863,1098.89,686.272,0,0,0.00120473,0.0001817,0.0268172,0.756308,0.17894,0.779854,0,0
399,0.529747,-2.51894,-3.90943,6.38775,1119.51,146.037,-17.0085,1108.71,681.66,0,0,0.00120473,0.0001817,0.023501,0.751286,0.19269,0.778871,0,0
400,0.531791,-2.51893,-3.92559,6.40404,1131.25,152.426,-27.6549,1118.59,660.411,0,0,0.00120473,0.0001817,0.0188529,0.755112,0.196477,0.783523,0,0
401,0.533834,-2.51892,-3.94176,6.42033,1143,158.815,-38.3013,1128.47,639.162,0,0,0.00120473,0.0001817,0.0142049,0.758937,0.200263,0.788175,0,0
402,0.518229,-2.5189,-3.96133,6.44536,1143.6,160.726,-49.5128,1128.02,625.235,0,0,0.00120473,0.0001817,0.0104198,0.763178,0.195212,0.791008,0,0
403,0.502624,-2.51888,-3.9809,6.4704,1144.21,162.636,-60.7242,1127.57,611.307,0,0,0.00120473,0.0001817,0.00663465,0.767419,0.190161,0.793842,0,0
404,0.487019,-2.51885,-4.00047,6.49543,1144.82,164.547,-71.9356,1127.12,597.38,0,0,0.00120473,0.0001817,0.00284952,0.77166,0.185109,0.796675,0,0
405,0.471414,-2.51883,-4.02005,6.52046,1145.43,166.457,-83.1471,1126.67,583.452,0,0,0.00120473,0.0001817,-0.000935587,0.775901,0.180058,0.799509,0,0
406,0.455809,-2.51881,-4.03962,6.54549,1146.04,168.368,-94.3585,1126.22,569.525,0,0,0.00120473,0.0001817,-0.0047207,0.780142,0.175007,0.802343,0,0
407,0.440204,-2.51878,-4.05919,6.57052,1144.33,169.229,-104.857,1123.51,556.25,0,0,0.00120473,0.0001817,-0.00799567,0.778653,0.165107,0.79819,0,0
408,0.424599,-2.51876,-4.07876,6.59556,1148.02,163.936,-110.313,1127.62,551.145,0,0,0.00120473,0.0001817,-0.00741895,0.764004,0.146896,0.778874,0,0
409,0.408994,-2.51874,-4.09834,6.62059,1159.01,157.772,-114.09,1139.13,541.701,0,0,0.00120473,0.0001817,-0.00545286,0.768263,0.143958,0.782841,0,0
410,0.393389,-2.51872,-4.11791,6.64562,1151.4,155.331,-121.011,1129.97,517.539,0,0,0.00120473,0.0001817,-0.00601517,0.776324,0.138359,0.790013,0,0
411,0.377784,-2.51869,-4.13748,6.67065,1143.8,152.889,-127.931,1120.81,493.376,0,0,0.00120473,0.0001817,-0.00657748,0.784386,0.132761,0.797185,0,0
412,0.362179,-2.51867,-4.15706,6.69568,1136.2,150.447,-134.852,1111.66,469.212,0,0,0.00120473,0.0001817,-0.00713977,0.792447,0.127163,0.804357,0,0
413,0.346574,-2.51865,-4.17663,6.72072,1128.59,148.006,-141.772,1102.5,445.05,0,0,0.00120473,0.0001817,-0.00770208,0.800509,0.121564,0.811529,0,0
414,0.330969,-2.51863,-4.1962,6.74575,1121.29,145.553,-148.616,1093.66,421.045,0,0,0.00120473,0.0001817,-0.00823586,0.808226,0.116002,0.818364,0,0
415,0.315364,-2.5186,-4.21577,6.77078,1130.74,142.494,-151.183,1102.79,405.917,0,0,0.00120473,0.0001817,-0.00716781,0.796632,0.112437,0.806324,0,0
416,0.299759,-2.51858,-4.23535,6.79581,1140.2,139.434,-153.749,1111.91,390.789,0,0,0.00120473,0.0001817,-0.00609985,0.785038,0.108872,0.794284,0,0
417,0.284154,-2.51856,-4.25492,6.82085,1108.01,142.628,-164.696,1075.5,356.727,0,0,0.00120473,0.0001817,-0.0112096,0.799527,0.102743,0.807433,0,0
418,0.268549,-2.51853,-4.27449,6.84588,1063.01,147.747,-178.222,1025.06,316.837,0,0,0.00120473,0.0001817,-0.0182205,0.822042,0.0958244,0.828333,0,0
419,0.252944,-2.51851,-4.29406,6.87091,1058.97,147.803,-187.074,1018.79,294.785,0,0,0.00120473,0.0001817,-0.022745,0.846408,0.0935911,0.852152,0,0
420,0.237339,-2.51849,-4.31364,6.89594,1133.78,136.325,-191.575,1097.21,305.789,0,0,0.00120473,0.0001817,-0.0217039,0.862062,0.106881,0.869805,0,0
421,0.221734,-2.51847,-4.33321,6.92097,1169.69,129.67,-194.887,1134.38,299.179,0,0,0.00120473,0.0001817,-0.020485,0.849759,0.106865,0.857562,0,0
422,0.203924,-2.51846,-4.3329,6.93879,1159.82,125.312,-196.824,1124.68,304.599,0,0,0.00120473,0.0001817,-0.0223053,0.86412,0.105315,0.871287,0,0
423,0.186114,-2.51845,-4.3326,6.9566,1150.16,116.669,-196.3,1115.97,306.392,0,0,0.00120473,0.0001817,-0.0222267,0.871845,0.101111,0.878763,0,0
424,0.168305,-2.51844,-4.33229,6.97441,1140.49,108.026,-195.776,1107.27,308.185,0,0,0.00120473,0.0001817,-0.0221482,0.87957,0.0969073,0.886239,0,0
425,0.150495,-2.51844,-4.33199,6.99222,1130.83,99.3837,-195.252,1098.56,309.978,0,0,0.00120473,0.0001817,-0.0220696,0.887295,0.0927036,0.893716,0,0
426,0.132685,-2.51843,-4.33168,7.01004,1121.17,90.7409,-194.728,1089.85,311.772,0,0,0.00120473,0.0001817,-0.0219911,0.895019,0.0884999,0.901192,0,0
427,0.114875,-2.51842,-4.33138,7.02785,1111.5,82.0982,-194.204,1081.15,313.565,0,0,0.00120473,0.0001817,-0.0219126,0.902745,0.0842963,0.908669,0,0
428,0.0970646,-2.51841,-4.33107,7.04566,1101.73,73.4601,-193.475,1072.35,315.453,0,0,0.00120473,0.0001817,-0.021759,0.909374,0.0799535,0.915034,0,0
429,0.0792546,-2.51841,-4.33076,7.06347,1091.13,64.8566,-191.22,1062.85,318.044,0,0,0.00120473,0.0001817,-0.0210495,0.907869,0.0745791,0.913153,0,0
430,0.0614446,-2.5184,-4.33046,7.08129,1080.53,56.2531,-188.966,1053.35,320.635,0,0,0.00120473,0.0001817,-0.0203399,0.906365,0.0692046,0.911273,0,0
431,0.0436347,-2.51839,-4.33015,7.0991,1069.93,47.6496,-186.711,1043.85,323.227,0,0,0.00120473,0.0001817,-0.0196304,0.90486,0.0638302,0.909392,0,0
432,0.0258247,-2.51838,-4.32985,7.11691,1059.33,39.0461,-184.456,1034.36,325.818,0,0,0.00120473,0.0001817,-0.0189208,0.903356,0.0584558,0.907511,0,0
433,0.00801471,-2.51837,-4.32954,7.13473,1048.73,30.4426,-182.201,1024.86,328.409,0,0,0.00120473,0.0001817,-0.0182112,0.901852,0.0530813,0.905631,0,0
434,-0.00979527,-2.51837,-4.32924,7.15254,1038.13,21.8391,-179.947,1015.36,331,0,0,0.00120473,0.0001817,-0.0175017,0.900348,0.0477069,0.90375,0,0
435,-0.0276052,-2.51836,-4.32893,7.17035,1027.53,13.2356,-177.692,1005.86,333.591,0,0,0.00120473,0.0001817,-0.0167921,0.898843,0.0423324,0.90187,0,0
436,-0.0454152,-2.51835,-4.32862,7.18816,991.583,6.9257,-174.39,969.393,323.083,0,0,0.00120473,0.0001817,-0.0150253,0.880361,0.0298176,0.882214,0,0
437,-0.0632252,-2.51834,-4.32832,7.20598,952.411,0.907979,-170.954,929.489,310.905,0,0,0.00120473,0.0001817,-0.0131238,0.859716,0.0163931,0.860293,0,0
438,-0.0810352,-2.51834,-4.32801,7.22379,966.523,-3.31324,-173.03,943.52,311.716,0,0,0.00120473,0.0001817,-0.0117813,0.877723,0.0078098,0.878027,0,0
439,-0.0988452,-2.51833,-4.32771,7.2416,996.544,-6.99806,-176.75,973.653,316.405,0,0,0.00120473,0.0001817,-0.0106057,0.907271,0.000671937,0.907601,0,0
440,-0.116655,-2.51832,-4.3274,7.25941,1004.46,-16.0846,-173.988,981.388,318.151,0,0,0.00120473,0.0001817,-0.00905586,0.909783,-0.00462371,0.91024,0,0
441,-0.134465,-2.51831,-4.3271,7.27723,1012.24,-25.351,-168.81,989.354,323.306,0,0,0.00120473,0.0001817,-0.00770138,0.90324,-0.00989816,0.90392,0,0
442,-0.149146,-2.51831,-4.32128,7.29302,1012.44,-33.5235,-162.819,989.804,332.896,0,0,0.00120473,0.0001817,-0.00626179,0.901781,-0.013878,0.9026,0,0
443,-0.163826,-2.51831,-4.31547,7.30881,1012.64,-41.6961,-156.828,990.253,342.485,0,0,0.00120473,0.0001817,-0.0048222,0.900323,-0.0178578,0.901281,0,0
444,-0.178507,-2.51831,-4.30965,7.3246,1012.84,-49.8686,-150.838,990.703,352.075,0,0,0.00120473,0.0001817,-0.00338261,0.898865,-0.0218377,0.899961,0,0
445,-0.193188,-2.51831,-4.30384,7.34039,1013.04,-58.0411,-144.847,991.152,361.665,0,0,0.00120473,0.0001817,-0.00194301,0.897406,-0.0258175,0.898642,0,0
446,-0.207868,-2.5183,-4.29803,7.35618,1013.25,-66.2136,-138.856,991.602,371.254,0,0,0.00120473,0.0001817,-0.00050342,0.895948,-0.0297974,0.897322,0,0
447,-0.222549,-2.5183,-4.29221,7.37197,1013.45,-74.3862,-132.866,992.051,380.844,0,0,0.00120473,0.0001817,0.000936174,0.89449,-0.0337772,0.896003,0,0
448,-0.23723,-2.5183,-4.2864,7.38776,1013.65,-82.5587,-126.875,992.501,390.434,0,0,0.00120473,0.0001817,0.00237576,0.893031,-0.037757,0.894683,0,0
449,-0.25191,-2.5183,-4.28058,7.40355,1013.85,-90.7312,-120.884,992.95,400.023,0,0,0.00120473,0.0001817,0.00381536,0.891573,-0.0417368,0.893364,0,0
450,-0.266591,-2.5183,-4.27477,7.41934,1014.06,-98.9037,-114.894,993.4,409.613,0,0,0.00120473,0.0001817,0.00525495,0.890115,-0.0457167,0.892044,0,0
451,-0.281272,-2.5183,-4.26896,7.43513,1014.26,-107.076,-108.903,993.851,419.202,0,0,0.00120473,0.0001817,0.00669451,0.888655,-0.0496966,0.890724,0,0
452,-0.295952,-2.51829,-4.26314,7.45092,1014.46,-115.249,-102.912,994.299,428.792,0,0,0.00120473,0.0001817,0.0081341,0.887197,-0.0536764,0.889405,0,0
453,-0.310633,-2.51829,-4.25733,7.46671,1014.66,-123.421,-96.9217,994.75,438.381,0,0,0.00120473,0.0001817,0.00957369,0.885739,-0.0576563,0.888085,0,0
454,-0.325314,-2.51829,-4.25151,7.4825,1014.87,-131.594,-90.9311,995.199,447.971,0,0,0.00120473,0.0001817,0.0110133,0.884281,-0.0616361,0.886766,0,0
455,-0.339994,-2.51829,-4.2457,7.49829,1011.17,-139.823,-85.1693,991.606,455.635,0,0,0.00120473,0.0001817,0.0124892,0.88202,-0.065061,0.884619,0,0
456,-0.354675,-2.51829,-4.23989,7.51408,982.837,-146.618,-80.1629,962.87,451.978,0,0,0.00120473,0.0001817,0.0131511,0.866764,-0.0679349,0.869703,0,0
457,-0.369356,-2.51828,-4.23407,7.52987,956.534,-151.533,-74.3228,936.643,450.192,0,0,0.00120473,0.0001817,0.012714,0.843712,-0.0741554,0.847407,0,0
458,-0.384036,-2.51828,-4.22826,7.54566,1005.47,-148.118,-71.3472,987.777,467.362,0,0,0.00120473,0.0001817,0.0114211,0.827789,-0.103018,0.838964,0,0
459,-0.398717,-2.51828,-4.22244,7.56145,1028.66,-152.427,-71.9457,1010.94,466.293,0,0,0.00120473,0.0001817,0.0119983,0.824166,-0.108015,0.836519,0,0
460,-0.413398,-2.51828,-4.21663,7.57724,1043.57,-158.964,-73.4528,1025.18,459.978,0,0,0.00120473,0.0001817,0.0130938,0.82372,-0.106187,0.835435,0,0
461,-0.428078,-2.51828,-4.21082,7.59303,1058.47,-165.501,-74.9599,1039.42,453.663,0,0,0.00120473,0.0001817,0.0141892,0.823273,-0.10436,0.834351,0,0
462,-0.433598,-2.51829,-4.19596,7.60888,1054.14,-162.673,-71.3209,1035.86,463.07,0,0,0.00120473,0.0001817,0.0131169,0.813987,-0.105445,0.82497,0,0
463,-0.439117,-2.5183,-4.1811,7.62473,1051.13,-154.786,-65.6185,1034.44,475.727,0,0,0.00120473,0.0001817,0.0110348,0.789281,-0.109029,0.801154,0,0
464,-0.444636,-2.51831,-4.16624,7.64058,1048.12,-146.898,-59.9159,1033.02,488.385,0,0,0.00120473,0.0001817,0.0089526,0.764574,-0.112613,0.777337,0,0
465,-0.450156,-2.51832,-4.15138,7.65643,1045.12,-139.011,-54.2135,1031.6,501.042,0,0,0.00120473,0.0001817,0.00687048,0.739868,-0.116197,0.753521,0,0
466,-0.455675,-2.51833,-4.13652,7.67228,1042.11,-131.123,-48.5109,1030.18,513.699,0,0,0.00120473,0.0001817,0.00478831,0.715162,-0.119781,0.729705,0,0
467,-0.461194,-2.51833,-4.12166,7.68813,1039.1,-123.236,-42.8085,1028.76,526.357,0,0,0.00120473,0.0001817,0.0027062,0.690455,-0.123365,0.705889,0,0
468,-0.466714,-2.51834,-4.10681,7.70398,1036.09,-115.348,-37.1059,1027.34,539.014,0,0,0.00120473,0.0001817,0.000624019,0.665749,-0.126949,0.682072,0,0
469,-0.472233,-2.51835,-4.09195,7.71983,1033.09,-107.461,-31.4035,1025.92,551.671,0,0,0.00120473,0.0001817,-0.00145809,0.641043,-0.130533,0.658256,0,0
470,-0.477752,-2.51836,-4.07709,7.73568,1030.99,-101.56,-27.4678,1025.03,562.514,0,0,0.00120473,0.0001817,-0.00350589,0.625197,-0.135799,0.643624,0,0
471,-0.483272,-2.51837,-4.06223,7.75153,1032.23,-102.975,-30.0375,1026.06,566.675,0,0,0.00120473,0.0001817,-0.0054271,0.641974,-0.147262,0.66281,0,0
472,-0.488791,-2.51838,-4.04737,7.76738,1033.47,-104.389,-32.6072,1027.09,570.836,0,0,0.00120473,0.0001817,-0.00734826,0.65875,-0.158724,0.681994,0,0
473,-0.49431,-2.51839,-4.03251,7.78323,1034.72,-105.804,-35.1769,1028.13,574.997,0,0,0.00120473,0.0001817,-0.00926949,0.675527,-0.170186,0.701179,0,0
474,-0.499829,-2.5184,-4.01765,7.79908,1035.96,-107.218,-37.7465,1029.16,579.157,0,0,0.00120473,0.0001817,-0.0111906,0.692304,-0.181648,0.720364,0,0
475,-0.505349,-2.51841,-4.0028,7.81493,1037.2,-108.633,-40.3162,1030.19,583.318,0,0,0.00120473,0.0001817,-0.0131119,0.709081,-0.19311,0.739549,0,0
476,-0.510868,-2.51842,-3.98794,7.83078,1038.45,-110.047,-42.8859,1031.23,587.479,0,0,0.00120473,0.0001817,-0.015033,0.725857,-0.204572,0.758733,0,0
477,-0.516387,-2.51843,-3.97308,7.84663,1039.69,-111.462,-45.4556,1032.26,591.64,0,0,0.00120473,0.0001817,-0.0169543,0.742634,-0.216035,0.777918,0,0
478,-0.521907,-2.51844,-3.95822,7.86249,1040.93,-112.876,-48.0253,1033.29,595.801,0,0,0.00120473,0.0001817,-0.0188755,0.759411,-0.227497,0.797103,0,0
479,-0.527426,-2.51845,-3.94336,7.87834,1038.96,-112.831,-48.415,1031.26,597.704,0,0,0.00120473,0.0001817,-0.0202291,0.767008,-0.233921,0.806037,0,0
480,-0.532945,-2.51846,-3.9285,7.89419,1039.25,-112.205,-49.3629,1031.54,589.03,0,0,0.00120473,0.0001817,-0.0211664,0.760738,-0.234005,0.800169,0,0
481,-0.538465,-2.51847,-3.91365,7.91004,1040.07,-111.607,-50.5433,1032.35,579.114,0,0,0.00120473,0.0001817,-0.0220895,0.753291,-0.233611,0.793078,0,0
482,-0.538931,-2.51848,-3.89775,7.92594,1033.27,-109.881,-51.3086,1025.65,569.028,0,0,0.00120473,0.0001817,-0.0230383,0.746599,-0.230479,0.786077,0,0
483,-0.539398,-2.51849,-3.88186,7.94183,1026.47,-108.154,-52.074,1018.94,558.943,0,0,0.00120473,0.0001817,-0.0239871,0.739907,-0.227346,0.779076,0,0
484,-0.539865,-2.51851,-3.86597,7.95773,1019.67,-106.428,-52.8394,1012.23,548.857,0,0,0.00120473,0.0001817,-0.024936,0.733215,-0.224213,0.772075,0,0
485,-0.540331,-2.51852,-3.85008,7.97363,1012.33,-104.693,-53.594,1004.98,538.706,0,0,0.00120473,0.0001817,-0.0259137,0.726201,-0.221102,0.764774,0,0
486,-0.540798,-2.51853,-3.83419,7.98953,997.862,-102.841,-54.2058,990.56,527.705,0,0,0.00120473,0.0001817,-0.0272727,0.714951,-0.218277,0.753513,0,0
487,-0.541264,-2.51854,-3.8183,8.00543,995.006,-97.7557,-48.957,988.207,524.96,0,0,0.00120473,0.0001817,-0.031981,0.716686,-0.217965,0.755609,0,0
488,-0.541731,-2.51856,-3.8024,8.02133,992.533,-92.5641,-43.5156,986.251,522.487,0,0,0.00120473,0.0001817,-0.0367994,0.718848,-0.217735,0.758144,0,0
489,-0.542197,-2.51857,-3.78651,8.03722,990.059,-87.3726,-38.0742,984.295,520.014,0,0,0.00120473,0.0001817,-0.0416178,0.721011,-0.217506,0.760679,0,0
490,-0.542664,-2.51858,-3.77062,8.05312,987.306,-82.2164,-32.4114,982.065,517.282,0,0,0.00120473,0.0001817,-0.0460671,0.720252,-0.216387,0.760091,0,0
491,-0.543131,-2.51859,-3.75473,8.06902,984.15,-77.1108,-26.4299,979.443,514.18,0,0,0.00120473,0.0001817,-0.049986,0.715294,-0.213992,0.755015,0,0
492,-0.543597,-2.51861,-3.73884,8.08492,980.993,-72.0051,-20.4485,976.82,511.078,0,0,0.00120473,0.0001817,-0.0539049,0.710337,-0.211596,0.749939,0,0
493,-0.544064,-2.51862,-3.72295,8.10082,977.837,-66.8996,-14.4672,974.197,507.975,0,0,0.00120473,0.0001817,-0.0578237,0.705379,-0.2092,0.744863,0,0
494,-0.54453,-2.51863,-3.70705,8.11672,974.681,-61.7941,-8.48583,971.574,504.873,0,0,0.00120473,0.0001817,-0.0617425,0.700421,-0.206805,0.739787,0,0
495,-0.544997,-2.51864,-3.69116,8.13262,971.525,-56.6885,-2.5044,968.951,501.771,0,0,0.00120473,0.0001817,-0.0656614,0.695464,-0.204409,0.734711,0,0
496,-0.545464,-2.51866,-3.67527,8.14851,968.369,-51.5829,3.47704,966.328,498.669,0,0,0.00120473,0.0001817,-0.0695802,0.690506,-0.202014,0.729634,0,0
497,-0.54593,-2.51867,-3.65938,8.16441,966.674,-45.9328,8.96822,964.867,497.148,0,0,0.00120473,0.0001817,-0.0731727,0.688619,-0.200503,0.72766,0,0
498,-0.546397,-2.51868,-3.64349,8.18031,968.606,-38.9318,13.2432,966.286,499.552,0,0,0.00120473,0.0001817,-0.0759552,0.694352,-0.201189,0.73338,0,0
499,-0.546863,-2.5187,-3.6276,8.19621,970.537,-31.9307,17.5183,967.705,501.956,0,0,0.00120473,0.0001817,-0.0787378,0.700085,-0.201875,0.739101,0,0
500,-0.54733,-2.51871,-3.6117,8.21211,972.469,-24.9296,21.7933,969.124,504.36,0,0,0.00120473,0.0001817,-0.0815204,0.705818,-0.202561,0.744822,0,0
501,-0.547796,-2.51872,-3.59581,8.22801,974.401,-17.9285,26.0683,970.543,506.764,0,0,0.00120473,0.0001817,-0.084303,0.71155,-0.203247,0.750543,0,0
502,-0.544028,-2.51873,-3.58511,8.23936,970.359,-13.4987,28.5469,966.18,506.421,0,0,0.00120473,0.0001817,-0.0850878,0.712341,-0.200908,0.75051,0,0
503,-0.54026,-2.51874,-3.5744,8.2507,966.399,-9.4118,31.0478,961.926,505.304,0,0,0.00120473,0.0001817,-0.0857015,0.711751,-0.19843,0.749033,0,0
504,-0.536492,-2.51875,-3.5637,8.26205,962.438,-5.32473,33.5487,957.672,504.187,0,0,0.00120473,0.0001817,-0.0863152,0.711161,-0.195952,0.747556,0,0
505,-0.532724,-2.51876,-3.55299,8.2734,958.478,-1.23771,36.0497,953.418,503.07,0,0,0.00120473,0.0001817,-0.0869289,0.710571,-0.193474,0.746078,0,0
506,-0.528956,-2.51877,-3.54229,8.28475,954.517,2.84931,38.5507,949.164,501.953,0,0,0.00120473,0.0001817,-0.0875426,0.709981,-0.190996,0.744601,0,0
507,-0.525188,-2.51878,-3.53158,8.2961,950.557,6.93624,41.0516,944.91,500.835,0,0,0.00120473,0.0001817,-0.0881562,0.709391,-0.188518,0.743124,0,0
508,-0.52142,-2.51879,-3.52088,8.30745,946.597,11.0232,43.5525,940.657,499.718,0,0,0.00120473,0.0001817,-0.0887699,0.708801,-0.186041,0.741647,0,0
509,-0.517652,-2.5188,-3.51017,8.3188,942.636,15.1103,46.0534,936.402,498.601,0,0,0.00120473,0.0001817,-0.0893836,0.708211,-0.183563,0.740169,0,0
510,-0.513884,-2.51881,-3.49947,8.33015,938.676,19.1973,48.5544,932.148,497.484,0,0,0.00120473,0.0001817,-0.0899973,0.707621,-0.181085,0.738692,0,0
511,-0.510116,-2.51882,-3.48876,8.34149,934.716,23.2843,51.0553,927.895,496.367,0,0,0.00120473,0.0001817,-0.090611,0.707031,-0.178607,0.737215,0,0
512,-0.506348,-2.51883,-3.47806,8.35284,930.756,27.3712,53.5562,923.641,495.25,0,0,0.00120473,0.0001817,-0.0912247,0.706441,-0.176129,0.735738,0,0
513,-0.50258,-2.51884,-3.46735,8.36419,926.796,31.4582,56.0572,919.387,494.133,0,0,0.00120473,0.0001817,-0.0918384,0.705851,-0.173651,0.73426,0,0
514,-0.498812,-2.51885,-3.45665,8.37554,922.835,35.5454,58.5581,915.133,493.016,0,0,0.00120473,0.0001817,-0.0924521,0.705261,-0.171173,0.732783,0,0
515,-0.495044,-2.51886,-3.44594,8.38689,918.874,39.6323,61.059,910.879,491.898,0,0,0.00120473,0.0001817,-0.0930658,0.704671,-0.168696,0.731306,0,0
516,-0.491276,-2.51888,-3.43524,8.39824,914.914,43.7193,63.5599,906.625,490.781,0,0,0.00120473,0.0001817,-0.0936794,0.704081,-0.166218,0.729829,0,0
517,-0.487508,-2.51889,-3.42453,8.40959,913.706,47.661,66.4199,905.207,491.71,0,0,0.00120473,0.0001817,-0.0931581,0.697289,-0.163423,0.722602,0,0
518,-0.48374,-2.5189,-3.41383,8.42093,913.5,51.0923,69.145,904.818,492.607,0,0,0.00120473,0.0001817,-0.0918912,0.687835,-0.160058,0.712761,0,0
519,-0.479971,-2.51891,-3.40312,8.43228,913.293,54.5237,71.87,904.428,493.504,0,0,0.00120473,0.0001817,-0.0906244,0.678381,-0.156693,0.702919,0,0
520,-0.476203,-2.51892,-3.39242,8.44363,913.086,57.955,74.5951,904.039,494.402,0,0,0.00120473,0.0001817,-0.0893575,0.668928,-0.153328,0.693078,0,0
521,-0.472435,-2.51893,-3.38171,8.45498,909.604,59.3181,76.9413,900.559,488.553,0,0,0.00120473,0.0001817,-0.0893745,0.669845,-0.154071,0.694022,0,0
522,-0.46162,-2.51894,-3.37404,8.46824,901.501,59.704,80.755,891.733,490.299,0,0,0.00120473,0.0001817,-0.087864,0.670177,-0.149557,0.693322,0,0
523,-0.450804,-2.51895,-3.36637,8.4815,895.375,58.959,85.1168,884.662,493.257,0,0,0.00120473,0.0001817,-0.0856629,0.669051,-0.144047,0.691061,0,0
524,-0.439988,-2.51896,-3.3587,8.49476,889.25,58.2139,89.4787,877.593,496.214,0,0,0.00120473,0.0001817,-0.0834618,0.667925,-0.138537,0.688799,0,0
525,-0.429172,-2.51897,-3.35103,8.50802,883.124,57.4688,93.8406,870.522,499.172,0,0,0.00120473,0.0001817,-0.0812607,0.666799,-0.133027,0.686537,0,0
526,-0.418357,-2.51898,-3.34335,8.52128,876.998,56.7238,98.2025,863.452,502.13,0,0,0.00120473,0.0001817,-0.0790596,0.665674,-0.127516,0.684276,0,0
527,-0.407541,-2.51899,-3.33568,8.53454,870.872,55.9787,102.564,856.383,505.088,0,0,0.00120473,0.0001817,-0.0768585,0.664548,-0.122006,0.682014,0,0
528,-0.396725,-2.519,-3.32801,8.5478,864.746,55.2337,106.926,849.312,508.046,0,0,0.00120473,0.0001817,-0.0746574,0.663422,-0.116496,0.679753,0,0
529,-0.38591,-2.51901,-3.32034,8.56107,858.621,54.4886,111.288,842.242,511.003,0,0,0.00120473,0.0001817,-0.0724563,0.662296,-0.110985,0.677491,0,0
530,-0.375094,-2.51903,-3.31266,8.57433,852.495,53.7402,115.648,835.173,513.952,0,0,0.00120473,0.0001817,-0.0702538,0.66117,-0.105474,0.675229,0,0
531,-0.364278,-2.51904,-3.30499,8.58759,846.345,52.2376,119.494,828.265,514.922,0,0,0.00120473,0.0001817,-0.0677345,0.659909,-0.0997047,0.672837,0,0
532,-0.353462,-2.51905,-3.29732,8.60085,840.194,50.7349,123.339,821.356,515.891,0,0,0.00120473,0.0001817,-0.0652152,0.658648,-0.0939354,0.670444,0,0
533,-0.342647,-2.51906,-3.28965,8.61411,834.044,49.2323,127.185,814.448,516.86,0,0,0.00120473,0.0001817,-0.0626958,0.657387,-0.088166,0.668052,0,0
534,-0.331831,-2.51907,-3.28198,8.62737,827.894,47.7296,131.031,807.539,517.829,0,0,0.00120473,0.0001817,-0.0601765,0.656126,-0.0823967,0.665659,0,0
535,-0.321015,-2.51908,-3.2743,8.64063,821.743,46.227,134.877,800.631,518.798,0,0,0.00120473,0.0001817,-0.0576572,0.654866,-0.0766274,0.663267,0,0
536,-0.310199,-2.51909,-3.26663,8.65389,815.593,44.7244,138.723,793.723,519.768,0,0,0.00120473,0.0001817,-0.0551378,0.653605,-0.0708581,0.660875,0,0
537,-0.299384,-2.5191,-3.25896,8.66715,809.443,43.2217,142.569,786.814,520.737,0,0,0.00120473,0.0001817,-0.0526185,0.652344,-0.0650888,0.658482,0,0
538,-0.288568,-2.51911,-3.25129,8.68041,803.293,41.7191,146.414,779.906,521.706,0,0,0.00120473,0.0001817,-0.0500992,0.651083,-0.0593194,0.65609,0,0
539,-0.277752,-2.51912,-3.24361,8.69367,798.552,43.016,147.268,775.456,517.861,0,0,0.00120473,0.0001817,-0.0506572,0.660673,-0.0554069,0.665289,0,0
540,-0.266937,-2.51913,-3.23594,8.70693,793.961,44.6096,147.804,771.266,513.505,0,0,0.00120473,0.0001817,-0.0515416,0.671414,-0.0516912,0.675717,0,0
541,-0.256121,-2.51915,-3.22827,8.72019,789.369,46.2033,148.34,767.077,509.15,0,0,0.00120473,0.0001817,-0.0524259,0.682154,-0.0479756,0.686145,0,0
542,-0.245592,-2.51916,-3.22224,8.73233,788.666,46.6618,150.684,765.997,509.3,0,0,0.00120473,0.0001817,-0.0514475,0.683325,-0.0465535,0.687252,0,0
543,-0.235063,-2.51917,-3.2162,8.74446,788.631,46.8988,153.419,765.418,510.455,0,0,0.00120473,0.0001817,-0.0502393,0.682878,-0.0455361,0.686777,0,0
544,-0.224534,-2.51917,-3.21017,8.7566,787.603,46.2011,155.471,763.774,513.165,0,0,0.00120473,0.0001817,-0.0500346,0.683143,-0.0442968,0.686914,0,0
545,-0.214004,-2.51918,-3.20413,8.76874,786.575,45.5034,157.523,762.13,515.875,0,0,0.00120473,0.0001817,-0.0498299,0.683408,-0.0430576,0.687051,0,0
546,-0.203475,-2.51919,-3.1981,8.78087,785.548,44.8057,159.575,760.486,518.584,0,0,0.00120473,0.0001817,-0.0496251,0.683673,-0.0418183,0.687189,0,0
547,-0.192946,-2.5192,-3.19206,8.79301,784.934,43.7313,161.115,759.52,517.655,0,0,0.00120473,0.0001817,-0.0489444,0.682675,-0.0405441,0.686067,0,0
548,-0.182417,-2.51921,-3.18603,8.80514,784.531,42.4656,162.394,758.899,514.877,0,0,0.00120473,0.0001817,-0.0480219,0.681034,-0.0392521,0.684305,0,0
549,-0.171888,-2.51922,-3.17999,8.81728,784.127,41.1999,163.673,758.279,512.099,0,0,0.00120473,0.0001817,-0.0470994,0.679394,-0.0379601,0.682544,0,0
550,-0.161359,-2.51923,-3.17396,8.82942,783.724,39.9342,164.952,757.657,509.321,0,0,0.00120473,0.0001817,-0.0461769,0.677753,-0.0366681,0.680783,0,0
551,-0.15083,-2.51924,-3.16792,8.84155,783.321,38.6685,166.232,757.037,506.543,0,0,0.00120473,0.0001817,-0.0452544,0.676113,-0.0353761,0.679021,0,0
552,-0.140301,-2.51925,-3.16189,8.85369,782.917,37.4028,167.511,756.416,503.765,0,0,0.00120473,0.0001817,-0.0443319,0.674472,-0.0340841,0.67726,0,0
553,-0.129772,-2.51926,-3.15585,8.86582,782.514,36.1371,168.79,755.795,500.987,0,0,0.00120473,0.0001817,-0.0434094,0.672832,-0.0327921,0.675499,0,0
554,-0.119242,-2.51927,-3.14982,8.87796,782.111,34.8714,170.069,755.174,498.209,0,0,0.00120473,0.0001817,-0.0424869,0.671191,-0.0315,0.673737,0,0
555,-0.108713,-2.51928,-3.14378,8.89009,781.707,33.6057,171.349,754.553,495.431,0,0,0.00120473,0.0001817,-0.0415644,0.669551,-0.030208,0.671976,0,0
556,-0.0981843,-2.51929,-3.13775,8.90223,781.304,32.34,172.628,753.932,492.653,0,0,0.00120473,0.0001817,-0.0406419,0.667911,-0.028916,0.670215,0,0
557,-0.0876552,-2.5193,-3.13172,8.91437,780.9,31.0743,173.907,753.311,489.875,0,0,0.00120473,0.0001817,-0.0397194,0.66627,-0.027624,0.668454,0,0
558,-0.0771261,-2.51931,-3.12568,8.9265,780.497,29.8086,175.186,752.69,487.097,0,0,0.00120473,0.0001817,-0.0387969,0.66463,-0.026332,0.666692,0,0
559,-0.066597,-2.51932,-3.11965,8.93864,780.094,28.5429,176.466,752.069,484.319,0,0,0.00120473,0.0001817,-0.0378744,0.662989,-0.02504,0.664931,0,0
560,-0.0560679,-2.51933,-3.11361,8.95077,779.69,27.2772,177.745,751.448,481.542,0,0,0.00120473,0.0001817,-0.0369519,0.661349,-0.023748,0.663169,0,0
561,-0.0455388,-2.51934,-3.10758,8.96291,779.228,26.178,178.963,750.746,479,0,0,0.00120473,0.0001817,-0.0359826,0.659043,-0.0223892,0.660747,0,0
562,-0.0315872,-2.51934,-3.10518,8.97706,776.729,27.6145,178.002,747.72,482.773,0,0,0.00120473,0.0001817,-0.0341088,0.647812,-0.0187201,0.649421,0,0
563,-0.0176355,-2.51935,-3.10279,8.99122,779.867,28.1454,176.243,751.156,476.217,0,0,0.00120473,0.0001817,-0.0325225,0.643181,-0.0142512,0.644692,0,0
564,-0.00368393,-2.51936,-3.1004,9.00538,783.005,28.6763,174.484,754.592,469.662,0,0,0.00120473,0.0001817,-0.0309362,0.63855,-0.00978237,0.639962,0,0
565,0.0102677,-2.51937,-3.09801,9.01953,786.143,29.2073,172.725,758.028,463.107,0,0,0.00120473,0.0001817,-0.0293499,0.633919,-0.00531353,0.635233,0,0
566,0.0242193,-2.51938,-3.09562,9.03369,789.281,29.7382,170.966,761.465,456.552,0,0,0.00120473,0.0001817,-0.0277635,0.629287,-0.000844677,0.630503,0,0
567,0.0381709,-2.51939,-3.09322,9.04784,793.863,30.2724,169.646,766.548,447.645,0,0,0.00120473,0.0001817,-0.0258917,0.628007,0.00397285,0.629203,0,0
568,0.0521225,-2.51939,-3.09083,9.062,793.122,27.617,170.319,766.384,439.535,0,0,0.00120473,0.0001817,-0.0214862,0.639386,0.00749448,0.6407,0,0
569,0.0660741,-2.5194,-3.08844,9.07615,788.407,23.8927,171.704,761.409,440.684,0,0,0.00120473,0.0001817,-0.016355,0.652797,0.0100136,0.654214,0,0
570,0.0800257,-2.51941,-3.08605,9.09031,784.858,20.4638,174.015,756.824,449.19,0,0,0.00120473,0.0001817,-0.0106419,0.668963,0.0127912,0.670601,0,0
571,0.0939774,-2.51942,-3.08365,9.10446,781.306,16.6851,176.495,752.259,457.508,0,0,0.00120473,0.0001817,-0.00423344,0.685036,0.0156154,0.686953,0,0
572,0.107929,-2.51943,-3.08126,9.11862,777.755,12.5567,179.147,747.721,465.626,0,0,0.00120473,0.0001817,0.00286924,0.701016,0.0184866,0.70327,0,0
573,0.121881,-2.51943,-3.07887,9.13277,774.207,8.07911,181.974,743.212,473.532,0,0,0.00120473,0.0001817,0.010665,0.716904,0.021405,0.719554,0,0
574,0.135832,-2.51944,-3.07648,9.14693,770.667,3.25279,184.978,738.739,481.212,0,0,0.00120473,0.0001817,0.0191525,0.732702,0.0243712,0.735805,0,0
575,0.149784,-2.51945,-3.07409,9.16108,767.138,-1.92176,188.16,734.305,488.654,0,0,0.00120473,0.0001817,0.0283303,0.748409,0.0273854,0.752023,0,0
576,0.163735,-2.51946,-3.07169,9.17524,763.625,-7.44399,191.523,729.916,495.844,0,0,0.00120473,0.0001817,0.0381967,0.764027,0.030448,0.76821,0,0
577,0.177687,-2.51947,-3.0693,9.18939,760.129,-13.3133,195.07,725.577,502.77,0,0,0.00120473,0.0001817,0.04875,0.779557,0.0335596,0.784366,0,0
578,0.191639,-2.51947,-3.06691,9.20355,756.656,-19.5288,198.802,721.292,509.417,0,0,0.00120473,0.0001817,0.0599884,0.794999,0.0367203,0.800491,0,0
579,0.20559,-2.51948,-3.06452,9.2177,753.21,-26.0901,202.723,717.068,515.771,0,0,0.00120473,0.0001817,0.0719101,0.810355,0.0399307,0.816588,0,0
580,0.219542,-2.51949,-3.06212,9.23186,749.794,-32.9963,206.834,712.909,521.819,0,0,0.00120473,0.0001817,0.0845129,0.825626,0.0431911,0.832655,0,0
581,0.233493,-2.5195,-3.05973,9.24601,762.436,-33.5534,209.026,724.866,517.611,0,0,0.00120473,0.0001817,0.090223,0.826062,0.0533772,0.835472,0,0
582,0.251895,-2.5195,-3.07057,9.26737,757.87,-33.8999,204.496,721.372,514.397,0,0,0.00120473,0.0001817,0.0916439,0.831735,0.0619663,0.84247,0,0
583,0.270297,-2.5195,-3.08142,9.28873,753.909,-33.8234,200.169,718.558,510.474,0,0,0.00120473,0.0001817,0.092324,0.836937,0.0702624,0.848924,0,0
584,0.288699,-2.5195,-3.09226,9.31009,759.226,-35.7196,197.601,724.602,507.137,0,0,0.00120473,0.0001817,0.0963946,0.836725,0.0800834,0.851113,0,0
585,0.307101,-2.5195,-3.1031,9.33145,779.795,-41.7499,197.757,745.073,505.723,0,0,0.00120473,0.0001817,0.107545,0.827823,0.0929655,0.846767,0,0
586,0.325502,-2.5195,-3.11395,9.35281,800.441,-47.9554,197.872,765.628,504.21,0,0,0.00120473,0.0001817,0.118933,0.818919,0.105845,0.842505,0,0
587,0.343904,-2.5195,-3.12479,9.37417,821.165,-54.335,197.945,786.268,502.596,0,0,0.00120473,0.0001817,0.130558,0.810013,0.118721,0.838327,0,0
588,0.362306,-2.51949,-3.13563,9.39552,841.965,-60.888,197.977,806.99,500.882,0,0,0.00120473,0.0001817,0.142418,0.801104,0.131595,0.834233,0,0
589,0.380708,-2.51949,-3.14647,9.41688,862.843,-67.6131,197.967,827.798,499.068,0,0,0.00120473,0.0001817,0.154512,0.792194,0.144466,0.830221,0,0
590,0.399109,-2.51949,-3.15732,9.43824,883.795,-74.5097,197.916,848.687,497.155,0,0,0.00120473,0.0001817,0.166839,0.783282,0.157335,0.826293,0,0
591,0.417511,-2.51949,-3.16816,9.4596,904.824,-81.5767,197.825,869.659,495.142,0,0,0.00120473,0.0001817,0.179398,0.774369,0.170201,0.822447,0,0
592,0.435913,-2.51949,-3.179,9.48096,925.929,-88.8129,197.692,890.714,493.029,0,0,0.00120473,0.0001817,0.192186,0.765453,0.183065,0.818683,0,0
593,0.454315,-2.51949,-3.18984,9.50232,947.109,-96.2179,197.52,911.851,490.818,0,0,0.00120473,0.0001817,0.205204,0.756537,0.195926,0.815001,0,0
594,0.472716,-2.51949,-3.20069,9.52368,967.02,-96.854,198.337,931.54,498.511,0,0,0.00120473,0.0001817,0.210584,0.754981,0.20507,0.817314,0,0
595,0.491118,-2.51949,-3.21153,9.54503,986.696,-94.7813,199.552,950.951,509.795,0,0,0.00120473,0.0001817,0.212728,0.756081,0.213002,0.821794,0,0
596,0.50952,-2.51949,-3.22237,9.56639,1007.72,-92.7627,201.799,970.924,522.911,0,0,0.00120473,0.0001817,0.197811,0.840934,0.192713,0.911492,0,0
597,0.527922,-2.51949,-3.23322,9.58775,1029.61,-90.6525,204.623,991.4,536.718,0,0,0.00120473,0.0001817,0.17632,0.979628,0.155884,1.05546,0,0
598,0.546323,-2.51949,-3.24406,9.60911,1057.89,-85.8129,209.084,1017.18,553.739,0,0,0.00120473,0.0001817,0.142482,1.24717,0.081799,1.32914,0,0
599,0.564725,-2.51949,-3.2549,9.63047,1102.54,-71.8533,218.091,1056.52,578.024,0,0,0.00120473,0.0001817,0.0855344,1.92811,-0.0996393,2.01908,0,0
600,0.583127,-2.51949,-3.26574,9.65183,1144.73,-55.4946,226.979,1094.34,597.07,0,0,0.00120473,0.0001817,0.0589576,2.72225,-0.28852,2.82127,0,0
601,0.601529,-2.51949,-3.27659,9.67319,1184.54,-36.7262,235.753,1130.73,610.82,0,0,0.00120473,0.0001817,0.0626836,3.63005,-0.484481,3.73606,0,0
602,0.604892,-2.51948,-3.29294,9.68988,1180.29,-32.0449,229.779,1127.28,629.642,0,0,0.00120473,0.0001817,0.0806391,3.15618,-0.404235,3.26202,0,0
603,0.608255,-2.51946,-3.30929,9.70657,1177.6,-26.8695,223.905,1125.76,646.573,0,0,0.00120473,0.0001817,0.099578,2.70267,-0.315342,2.80592,0,0
604,0.611619,-2.51945,-3.32564,9.72327,1176.51,-21.206,218.131,1126.19,661.625,0,0,0.00120473,0.0001817,0.119405,2.26924,-0.217746,2.36747,0,0
605,0.614982,-2.51944,-3.342,9.73996,0,0,0,0,0,0,0,0,0,0,0,0,0,0,0
606,0.618345,-2.51943,-3.35835,9.75666,1180.34,-4.99113,204.054,1137.88,670.108,0,0,0.00120473,0.0001817,0.154847,1.48403,-0.00131093,1.56893,0,0
607,0.621709,-2.51942,-3.3747,9.77335,1183.49,4.9461,195.963,1146.48,666.619,0,0,0.00120473,0.0001817,0.16847,1.1189,0.118938,1.19414,0,0
608,0.625072,-2.51941,-3.39105,9.79005,1186.44,14.7647,188.37,1154.22,664.647,0,0,0.00120473,0.0001817,0.178431,0.795017,0.235634,0.858334,0,0
609,0.628435,-2.51939,-3.4074,9.80674,1188.78,24.3185,182.83,1159.28,667.659,0,0,0.00120473,0.0001817,0.167833,0.778366,0.237591,0.840813,0,0
610,0.631799,-2.51938,-3.42376,9.82344,1190.82,33.8203,177.343,1163.86,671.062,0,0,0.00120473,0.0001817,0.15708,0.762771,0.239329,0.824255,0,0
611,0.635162,-2.51937,-3.44011,9.84013,1192.55,43.2621,171.908,1167.94,674.87,0,0,0.00120473,0.0001817,0.14618,0.748217,0.240846,0.808644,0,0
612,0.638525,-2.51936,-3.45646,9.85682,1193.97,52.6368,166.52,1171.54,679.099,0,0,0.00120473,0.0001817,0.135143,0.734684,0.242138,0.793966,0,0
613,0.641889,-2.51935,-3.47281,9.87352,1195.08,61.9365,161.177,1174.65,683.765,0,0,0.00120473,0.0001817,0.123979,0.722156,0.243204,0.780209,0,0
614,0.645252,-2.51933,-3.48916,9.89021,1195.88,71.1536,155.878,1177.25,688.882,0,0,0.00120473,0.0001817,0.112697,0.710614,0.244042,0.767358,0,0
615,0.648615,-2.51932,-3.50552,9.90691,1196.37,80.2809,150.619,1179.36,694.465,0,0,0.00120473,0.0001817,0.101305,0.700041,0.24465,0.755398,0,0
616,0.651979,-2.51931,-3.52187,9.9236,1196.55,89.3112,145.399,1180.97,700.529,0,0,0.00120473,0.0001817,0.0898138,0.690419,0.245025,0.744315,0,0
617,0.655342,-2.5193,-3.53822,9.9403,1203.54,92.7421,139.595,1188.46,706.534,0,0,0.00120473,0.0001817,0.0872549,0.688655,0.244725,0.741993,0,0
618,0.658705,-2.51929,-3.55457,9.95699,1213.51,93.7997,133.481,1198.6,712.373,0,0,0.00120473,0.0001817,0.0885466,0.690073,0.244209,0.743254,0,0
619,0.662069,-2.51928,-3.57092,9.97368,1223.45,94.8448,127.308,1208.72,718.207,0,0,0.00120473,0.0001817,0.0898505,0.691591,0.243701,0.744614,0,0
620,0.665432,-2.51926,-3.58728,9.99038,1233.37,95.8779,121.077,1218.82,724.036,0,0,0.00120473,0.0001817,0.0911658,0.693208,0.243201,0.746071,0,0
621,0.668795,-2.51925,-3.60363,10.0071,1243.27,96.8989,114.787,1228.9,729.86,0,0,0.00120473,0.0001817,0.0924926,0.694922,0.242709,0.747623,0,0
622,0.66323,-2.51923,-3.62305,10.0273,1230.63,102.551,105.748,1216.81,721.082,0,0,0.00120473,0.0001817,0.0778306,0.686963,0.237013,0.735897,0,0
623,0.657665,-2.51922,-3.64248,10.0475,1219.51,111.085,95.7687,1206.16,708.446,0,0,0.00120473,0.0001817,0.0627857,0.680922,0.231314,0.726141,0,0
624,0.652099,-2.5192,-3.66191,10.0677,1209.07,118.881,86.0299,1196.15,697.919,0,0,0.00120473,0.0001817,0.0495709,0.674737,0.226637,0.716801,0,0
625,0.646534,-2.51918,-3.68134,10.0879,1197.78,124.252,77.0635,1185.19,693.613,0,0,0.00120473,0.0001817,0.0431464,0.673429,0.221738,0.713006,0,0
626,0.640968,-2.51916,-3.70077,10.1081,1185.26,127.916,68.636,1172.91,693.534,0,0,0.00120473,0.0001817,0.0416577,0.676689,0.215946,0.713999,0,0
627,0.635403,-2.51914,-3.72019,10.1283,1172.73,131.58,60.2085,1160.64,693.454,0,0,0.00120473,0.0001817,0.0401689,0.679948,0.210153,0.714992,0,0
628,0.629838,-2.51913,-3.73962,10.1485,1160.21,135.245,51.781,1148.36,693.375,0,0,0.00120473,0.0001817,0.0386802,0.683207,0.204361,0.715985,0,0
629,0.624272,-2.51911,-3.75905,10.1687,1147.69,138.909,43.3536,1136.09,693.296,0,0,0.00120473,0.0001817,0.0371915,0.686467,0.198568,0.716978,0,0
630,0.618707,-2.51909,-3.77848,10.189,1135.17,142.573,34.9261,1123.81,693.216,0,0,0.00120473,0.0001817,0.0357027,0.689726,0.192775,0.717971,0,0
631,0.613142,-2.51907,-3.7979,10.2092,1126.42,146.312,26.5964,1115.32,693.037,0,0,0.00120473,0.0001817,0.0342738,0.69517,0.187552,0.721405,0,0
632,0.607576,-2.51905,-3.81733,10.2294,1127.96,149.86,18.897,1117.1,692.631,0,0,0.00120473,0.0001817,0.0330495,0.708005,0.185841,0.733456,0,0
633,0.602011,-2.51904,-3.83676,10.2496,1132.24,150.481,14.0345,1121.49,692.495,0,0,0.00120473,0.0001817,0.0321875,0.733461,0.199447,0.762332,0,0
634,0.596446,-2.51902,-3.85619,10.2698,1137.41,151.517,7.90194,1126.64,690.59,0,0,0.00120473,0.0001817,0.030274,0.747255,0.211497,0.779363,0,0
635,0.59088,-2.519,-3.87562,10.29,1144.19,153.75,-0.817494,1132.96,683.409,0,0,0.00120473,0.0001817,0.0265553,0.7447,0.219632,0.779267,0,0
636,0.585315,-2.51898,-3.89504,10.3102,1152.27,158.844,-12.8693,1139.33,663.104,0,0,0.00120473,0.0001817,0.021786,0.749125,0.219908,0.783617,0,0
637,0.579749,-2.51896,-3.91447,10.3304,1160.34,163.939,-24.921,1145.7,642.799,0,0,0.00120473,0.0001817,0.0170168,0.753549,0.220184,0.787967,0,0
638,0.574184,-2.51894,-3.9339,10.3506,1168.42,169.034,-36.9728,1152.07,622.494,0,0,0.00120473,0.0001817,0.0122475,0.757974,0.22046,0.792316,0,0
639,0.568619,-2.51893,-3.95333,10.3708,1176.5,174.129,-49.0246,1158.44,602.189,0,0,0.00120473,0.0001817,0.00747818,0.762399,0.220736,0.796666,0,0
640,0.563053,-2.51891,-3.97275,10.391,1184.57,179.224,-61.0764,1164.81,581.884,0,0,0.00120473,0.0001817,0.0027089,0.766824,0.221012,0.801015,0,0
641,0.557488,-2.51889,-3.99218,10.4113,1192.65,184.318,-73.1281,1171.18,561.579,0,0,0.00120473,0.0001817,-0.0020604,0.771248,0.221288,0.805365,0,0
642,0.547551,-2.51887,-4.00875,10.4306,1195.63,186.992,-82.9252,1173.04,547.648,0,0,0.00120473,0.0001817,-0.0055992,0.77491,0.218757,0.808271,0,0
643,0.537613,-2.51885,-4.02533,10.4499,1198.61,189.665,-92.7223,1174.91,533.718,0,0,0.00120473,0.0001817,-0.00913793,0.778572,0.216226,0.811178,0,0
644,0.527676,-2.51884,-4.0419,10.4692,1201.59,192.338,-102.52,1176.78,519.787,0,0,0.00120473,0.0001817,-0.0126768,0.782234,0.213695,0.814084,0,0
645,0.517739,-2.51882,-4.05847,10.4885,1200.02,192.951,-110.917,1174.22,507.139,0,0,0.00120473,0.0001817,-0.015214,0.774648,0.201645,0.803275,0,0
646,0.507801,-2.5188,-4.07504,10.5079,1193.98,191.538,-117.938,1167.32,495.754,0,0,0.00120473,0.0001817,-0.0167658,0.755995,0.18023,0.77897,0,0
647,0.497864,-2.51878,-4.09161,10.5272,1193.56,189.116,-123.918,1166.53,486.79,0,0,0.00120473,0.0001817,-0.0174717,0.740297,0.162485,0.758635,0,0
648,0.487926,-2.51877,-4.10818,10.5465,1221.35,181.645,-124.682,1196.38,489.953,0,0,0.00120473,0.0001817,-0.0139434,0.73939,0.163112,0.758171,0,0
649,0.477989,-2.51875,-4.12476,10.5658,1249.14,174.175,-125.447,1226.24,493.116,0,0,0.00120473,0.0001817,-0.0104151,0.738483,0.16374,0.757708,0,0
650,0.468052,-2.51873,-4.14133,10.5852,1251.24,171.846,-130.554,1227.53,475.947,0,0,0.00120473,0.0001817,-0.0103793,0.742829,0.160694,0.761672,0,0
651,0.458114,-2.51871,-4.1579,10.6045,1248.62,170.46,-136.457,1223.59,455.044,0,0,0.00120473,0.0001817,-0.0109849,0.748141,0.156973,0.766449,0,0
652,0.448177,-2.51869,-4.17447,10.6238,1246.01,169.075,-142.361,1219.64,434.141,0,0,0.00120473,0.0001817,-0.0115905,0.753453,0.153252,0.771225,0,0
653,0.438239,-2.51868,-4.19104,10.6431,1243.39,167.69,-148.264,1215.7,413.238,0,0,0.00120473,0.0001817,-0.0121961,0.758765,0.14953,0.776002,0,0
654,0.428302,-2.51866,-4.20761,10.6625,1240.77,166.305,-154.168,1211.75,392.335,0,0,0.00120473,0.0001817,-0.0128017,0.764077,0.145809,0.780779,0,0
655,0.418365,-2.51864,-4.22419,10.6818,1238.16,164.919,-160.071,1207.8,371.432,0,0,0.00120473,0.0001817,-0.0134073,0.769388,0.142088,0.785555,0,0
656,0.408427,-2.51862,-4.24076,10.7011,1235.54,163.534,-165.975,1203.86,350.529,0,0,0.00120473,0.0001817,-0.0140129,0.7747,0.138367,0.790332,0,0
657,0.39849,-2.51861,-4.25733,10.7204,1232.93,162.149,-171.879,1199.91,329.626,0,0,0.00120473,0.0001817,-0.0146185,0.780012,0.134645,0.795109,0,0
658,0.388553,-2.51859,-4.2739,10.7397,1230.31,160.688,-177.833,1195.92,308.379,0,0,0.00120473,0.0001817,-0.015073,0.78598,0.130837,0.80053,0,0
659,0.378615,-2.51857,-4.29047,10.7591,1228.45,155.546,-186.393,1190.71,271.231,0,0,0.00120473,0.0001817,-0.00847067,0.821774,0.124125,0.835397,0,0
660,0.368678,-2.51855,-4.30704,10.7784,1236.31,149.505,-193.264,1195.66,237.008,0,0,0.00120473,0.0001817,-0.000198675,0.850963,0.119288,0.863993,0,0
661,0.35874,-2.51853,-4.32362,10.7977,1257.3,142.866,-196.938,1214.7,208.69,0,0,0.00120473,0.0001817,0.00964698,0.870092,0.114983,0.882746,0,0
662,0.34105,-2.51853,-4.32572,10.8155,1238.35,145.217,-191.401,1198.66,233.18,0,0,0.00120473,0.0001817,-0.000594605,0.826335,0.113372,0.838418,0,0
663,0.32336,-2.51852,-4.32782,10.8333,1222.49,146.825,-187.181,1186.02,259.808,0,0,0.00120473,0.0001817,-0.00984966,0.783354,0.112267,0.794887,0,0
664,0.30567,-2.51851,-4.32993,10.8512,1215.51,143.949,-183.917,1180.58,272.055,0,0,0.00120473,0.0001817,-0.0103952,0.766659,0.109157,0.777469,0,0
665,0.287979,-2.5185,-4.33203,10.869,1209.7,139.969,-180.895,1175.63,278.961,0,0,0.00120473,0.0001817,-0.00856615,0.758624,0.105264,0.768631,0,0
666,0.270289,-2.51849,-4.33414,10.8868,1174.72,140.961,-188.183,1138.12,271.566,0,0,0.00120473,0.0001817,-0.0142323,0.791631,0.103144,0.800505,0,0
667,0.252599,-2.51848,-4.33624,10.9046,1189.64,135.056,-190.555,1154.4,285.238,0,0,0.00120473,0.0001817,-0.0160422,0.816617,0.107623,0.825672,0,0
668,0.234908,-2.51847,-4.33835,10.9224,1182.44,131.737,-193.315,1147.13,288.864,0,0,0.00120473,0.0001817,-0.0179823,0.827729,0.106141,0.836015,0,0
669,0.217218,-2.51846,-4.34045,10.9402,1175.24,128.417,-196.075,1139.86,292.491,0,0,0.00120473,0.0001817,-0.0199224,0.838843,0.10466,0.84636,0,0
670,0.199528,-2.51845,-4.34255,10.958,1168.12,123.255,-197.777,1133.02,294.557,0,0,0.00120473,0.0001817,-0.0210457,0.847101,0.102037,0.854016,0,0
671,0.181837,-2.51844,-4.34466,10.9759,1161.17,114.69,-197.524,1126.97,293.742,0,0,0.00120473,0.0001817,-0.0206605,0.850087,0.0973068,0.856708,0,0
672,0.164147,-2.51843,-4.34676,10.9937,1154.22,106.124,-197.272,1120.91,292.927,0,0,0.00120473,0.0001817,-0.0202754,0.853075,0.0925767,0.859401,0,0
673,0.146457,-2.51842,-4.34887,11.0115,1147.27,97.5583,-197.02,1114.86,292.111,0,0,0.00120473,0.0001817,-0.0198903,0.856062,0.0878466,0.862094,0,0
674,0.128767,-2.51841,-4.35097,11.0293,1140.32,88.9927,-196.768,1108.81,291.297,0,0,0.00120473,0.0001817,-0.0195052,0.859049,0.0831166,0.864787,0,0
675,0.111076,-2.5184,-4.35307,11.0471,1133.36,80.427,-196.515,1102.76,290.482,0,0,0.00120473,0.0001817,-0.0191201,0.862036,0.0783865,0.86748,0,0
676,0.093386,-2.51839,-4.35518,11.0649,1126.41,71.8614,-196.263,1096.71,289.666,0,0,0.00120473,0.0001817,-0.018735,0.865023,0.0736564,0.870172,0,0
677,0.0756957,-2.51838,-4.35728,11.0828,1119.46,63.2957,-196.011,1090.66,288.852,0,0,0.00120473,0.0001817,-0.0183499,0.86801,0.0689264,0.872865,0,0
678,0.0580054,-2.51837,-4.35939,11.1006,1112.51,54.7301,-195.758,1084.61,288.036,0,0,0.00120473,0.0001817,-0.0179648,0.870997,0.0641963,0.875558,0,0
679,0.0403151,-2.51836,-4.36149,11.1184,1105.56,46.1645,-195.506,1078.56,287.221,0,0,0.00120473,0.0001817,-0.0175796,0.873983,0.0594662,0.87825,0,0
680,0.0226248,-2.51835,-4.36359,11.1362,1098.61,37.5988,-195.254,1072.5,286.407,0,0,0.00120473,0.0001817,-0.0171945,0.876971,0.0547362,0.880943,0,0
681,0.00493455,-2.51834,-4.3657,11.154,1091.65,29.0332,-195.002,1066.45,285.591,0,0,0.00120473,0.0001817,-0.0168094,0.879957,0.0500061,0.883636,0,0
682,-0.00404809,-2.51834,-4.36444,11.1631,1085.57,24.6655,-194.615,1060.87,287.683,0,0,0.00120473,0.0001817,-0.0169102,0.885997,0.0481396,0.889572,0,0
683,-0.0130307,-2.51834,-4.36319,11.1722,1079.48,20.2977,-194.228,1055.3,289.775,0,0,0.00120473,0.0001817,-0.017011,0.892036,0.0462731,0.895507,0,0
684,-0.0220134,-2.51834,-4.36193,11.1812,1073.4,15.9299,-193.841,1049.72,291.866,0,0,0.00120473,0.0001817,-0.0171119,0.898076,0.0444066,0.901442,0,0
685,-0.030996,-2.51833,-4.36068,11.1903,1062.62,11.9859,-193.23,1039.15,291.557,0,0,0.00120473,0.0001817,-0.0170063,0.900817,0.0412019,0.90393,0,0
686,-0.0399786,-2.51833,-4.35942,11.1994,1040.35,9.08061,-192.069,1016.35,285.359,0,0,0.00120473,0.0001817,-0.0163948,0.895474,0.0347172,0.897968,0,0
687,-0.0489613,-2.51833,-4.35817,11.2084,1019.04,6.06203,-189.971,994.701,280.398,0,0,0.00120473,0.0001817,-0.0154818,0.885811,0.02798,0.887659,0,0
688,-0.0579439,-2.51832,-4.35691,11.2175,997.968,3.01449,-187.633,973.338,275.754,0,0,0.00120473,0.0001817,-0.0144917,0.875043,0.0211782,0.876238,0,0
689,-0.0669266,-2.51832,-4.35566,11.2266,976.9,-0.0330587,-185.295,951.976,271.11,0,0,0.00120473,0.0001817,-0.0135016,0.864275,0.0143763,0.864817,0,0
690,-0.0759092,-2.51832,-4.3544,11.2356,973.813,-2.47434,-184.817,948.814,270.849,0,0,0.00120473,0.0001817,-0.0127001,0.86655,0.00920823,0.866778,0,0
691,-0.0848918,-2.51831,-4.35315,11.2447,988.425,-4.30586,-185.938,963.607,275.258,0,0,0.00120473,0.0001817,-0.0121066,0.88077,0.00562526,0.881024,0,0
692,-0.0938745,-2.51831,-4.35189,11.2538,1004.56,-5.941,-184.645,980.39,283.997,0,0,0.00120473,0.0001817,-0.011777,0.886159,0.00192697,0.886542,0,0
693,-0.102857,-2.51831,-4.35063,11.2629,1020.69,-7.57613,-183.353,997.173,292.735,0,0,0.00120473,0.0001817,-0.0114473,0.891546,-0.00177134,0.892061,0,0
694,-0.11184,-2.51831,-4.34938,11.2719,1027.06,-11.5073,-180.66,1003.83,298.062,0,0,0.00120473,0.0001817,-0.0108306,0.890463,-0.00466186,0.891096,0,0
695,-0.120822,-2.5183,-4.34812,11.281,1029.8,-16.2921,-177.447,1006.73,302.122,0,0,0.00120473,0.0001817,-0.010107,0.886975,-0.00725204,0.887721,0,0
696,-0.129805,-2.5183,-4.34687,11.2901,1032.54,-21.0768,-174.233,1009.63,306.181,0,0,0.00120473,0.0001817,-0.00938356,0.883486,-0.00984227,0.884346,0,0
697,-0.138788,-2.5183,-4.34561,11.2991,1035.28,-25.8616,-171.02,1012.53,310.24,0,0,0.00120473,0.0001817,-0.00866004,0.879998,-0.0124324,0.880972,0,0
698,-0.14777,-2.51829,-4.34436,11.3082,1038.02,-30.6464,-167.807,1015.42,314.3,0,0,0.00120473,0.0001817,-0.00793653,0.876509,-0.0150227,0.877597,0,0
699,-0.156753,-2.51829,-4.3431,11.3173,1040.76,-35.4311,-164.594,1018.32,318.359,0,0,0.00120473,0.0001817,-0.00721302,0.873021,-0.0176128,0.874223,0,0
700,-0.165736,-2.51829,-4.34185,11.3263,1043.5,-40.2159,-161.38,1021.22,322.419,0,0,0.00120473,0.0001817,-0.00648954,0.869532,-0.0202031,0.870847,0,0
701,-0.174718,-2.51828,-4.34059,11.3354,1046.24,-45.0007,-158.167,1024.12,326.478,0,0,0.00120473,0.0001817,-0.00576602,0.866044,-0.0227932,0.867473,0,0
702,-0.185612,-2.51828,-4.33788,11.3466,1048.22,-50.9145,-154.038,1026.28,332.331,0,0,0.00120473,0.0001817,-0.00480765,0.863148,-0.0258548,0.864701,0,0
703,-0.196506,-2.51828,-4.33518,11.3579,1050.19,-56.8284,-149.908,1028.44,338.184,0,0,0.00120473,0.0001817,-0.00384924,0.860253,-0.0289164,0.861929,0,0
704,-0.2074,-2.51828,-4.33247,11.3691,1052.17,-62.7422,-145.779,1030.61,344.038,0,0,0.00120473,0.0001817,-0.00289087,0.857358,-0.031978,0.859157,0,0
705,-0.218294,-2.51827,-4.32976,11.3803,1054.15,-68.6561,-141.649,1032.77,349.891,0,0,0.00120473,0.0001817,-0.00193246,0.854463,-0.0350395,0.856385,0,0
706,-0.229188,-2.51827,-4.32706,11.3915,1056.13,-74.5699,-137.519,1034.94,355.744,0,0,0.00120473,0.0001817,-0.000974086,0.851567,-0.0381011,0.853613,0,0
707,-0.240082,-2.51827,-4.32435,11.4028,1058.1,-80.4837,-133.39,1037.1,361.597,0,0,0.00120473,0.0001817,-1.57E-05,0.848672,-0.0411627,0.85084,0,0
708,-0.250976,-2.51827,-4.32164,11.414,1060.08,-86.3976,-129.26,1039.27,367.451,0,0,0.00120473,0.0001817,0.000942695,0.845777,-0.0442242,0.848069,0,0
709,-0.26187,-2.51826,-4.31894,11.4252,1062.06,-92.3114,-125.131,1041.43,373.304,0,0,0.00120473,0.0001817,0.00190107,0.842881,-0.0472858,0.845296,0,0
710,-0.272764,-2.51826,-4.31623,11.4364,1064.03,-98.2253,-121.001,1043.6,379.157,0,0,0.00120473,0.0001817,0.00285948,0.839986,-0.0503473,0.842524,0,0
711,-0.283658,-2.51826,-4.31352,11.4477,1066.01,-104.139,-116.871,1045.76,385.01,0,0,0.00120473,0.0001817,0.00381785,0.837091,-0.0534089,0.839752,0,0
712,-0.294552,-2.51826,-4.31082,11.4589,1067.99,-110.053,-112.742,1047.93,390.864,0,0,0.00120473,0.0001817,0.00477622,0.834195,-0.0564706,0.83698,0,0
713,-0.305446,-2.51825,-4.30811,11.4701,1069.97,-115.967,-108.612,1050.09,396.717,0,0,0.00120473,0.0001817,0.00573463,0.8313,-0.0595321,0.834208,0,0
714,-0.31634,-2.51825,-4.3054,11.4813,1071.94,-121.881,-104.483,1052.26,402.57,0,0,0.00120473,0.0001817,0.00669301,0.828405,-0.0625937,0.831436,0,0
715,-0.327234,-2.51825,-4.3027,11.4926,1073.92,-127.795,-100.353,1054.42,408.424,0,0,0.00120473,0.0001817,0.00765141,0.82551,-0.0656552,0.828664,0,0
716,-0.338128,-2.51825,-4.29999,11.5038,1075.9,-133.708,-96.2234,1056.59,414.277,0,0,0.00120473,0.0001817,0.00860979,0.822614,-0.0687168,0.825892,0,0
717,-0.349022,-2.51824,-4.29728,11.515,1060.28,-139.876,-93.1266,1040.51,411.443,0,0,0.00120473,0.0001817,0.00973206,0.816102,-0.0692748,0.819387,0,0
718,-0.359915,-2.51824,-4.29458,11.5262,1062.5,-143.771,-91.2756,1042.69,411.78,0,0,0.00120473,0.0001817,0.010753,0.811566,-0.0756912,0.816833,0,0
719,-0.370809,-2.51824,-4.29187,11.5375,1070.77,-147.042,-89.6805,1051.09,413.606,0,0,0.00120473,0.0001817,0.0117347,0.807825,-0.0838546,0.815608,0,0
720,-0.381703,-2.51823,-4.28916,11.5487,1079.04,-150.312,-88.0852,1059.48,415.431,0,0,0.00120473,0.0001817,0.0127164,0.804084,-0.0920177,0.814384,0,0
721,-0.392597,-2.51823,-4.28646,11.5599,1087.32,-153.582,-86.49,1067.87,417.257,0,0,0.00120473,0.0001817,0.0136982,0.800343,-0.100181,0.813159,0,0
722,-0.390686,-2.51824,-4.27863,11.568,1060.16,-155.398,-84.5288,1040.24,419.268,0,0,0.00120473,0.0001817,0.0142006,0.808167,-0.0936073,0.819063,0,0
723,-0.388776,-2.51825,-4.27081,11.576,1033,-157.213,-82.5674,1012.6,421.28,0,0,0.00120473,0.0001817,0.0147031,0.815992,-0.0870332,0.824969,0,0
724,-0.386865,-2.51825,-4.26298,11.5841,1016.33,-157.123,-80.5961,995.939,426.544,0,0,0.00120473,0.0001817,0.0146027,0.821222,-0.0848442,0.82932,0,0
725,-0.384954,-2.51826,-4.25516,11.5921,1009.19,-155.301,-78.6156,989.249,434.766,0,0,0.00120473,0.0001817,0.0139545,0.824092,-0.0866414,0.83226,0,0
726,-0.383043,-2.51827,-4.24733,11.6002,1002.05,-153.479,-76.6349,982.559,442.989,0,0,0.00120473,0.0001817,0.0133062,0.826962,-0.0884389,0.8352,0,0
727,-0.381132,-2.51828,-4.23951,11.6082,994.915,-151.658,-74.6544,975.869,451.211,0,0,0.00120473,0.0001817,0.012658,0.829832,-0.0902361,0.83814,0,0
728,-0.379221,-2.51828,-4.23168,11.6163,987.776,-149.836,-72.6739,969.179,459.433,0,0,0.00120473,0.0001817,0.0120098,0.832702,-0.0920333,0.841079,0,0
729,-0.37731,-2.51829,-4.22386,11.6244,980.637,-148.014,-70.6934,962.489,467.655,0,0,0.00120473,0.0001817,0.0113615,0.835571,-0.0938304,0.844019,0,0
730,-0.375399,-2.5183,-4.21603,11.6324,973.497,-146.192,-68.7127,955.799,475.878,0,0,0.00120473,0.0001817,0.0107133,0.838441,-0.0956279,0.846959,0,0
731,-0.373489,-2.5183,-4.20821,11.6405,966.358,-144.37,-66.7322,949.109,484.099,0,0,0.00120473,0.0001817,0.010065,0.841311,-0.0974251,0.849899,0,0
732,-0.371578,-2.51831,-4.20038,11.6485,959.219,-142.548,-64.7517,942.419,492.321,0,0,0.00120473,0.0001817,0.00941679,0.844181,-0.0992223,0.852838,0,0
733,-0.369667,-2.51832,-4.19256,11.6566,952.08,-140.726,-62.7711,935.729,500.544,0,0,0.00120473,0.0001817,0.00876852,0.847051,-0.10102,0.855778,0,0
734,-0.367756,-2.51833,-4.18473,11.6646,944.941,-138.905,-60.7906,929.039,508.766,0,0,0.00120473,0.0001817,0.00812029,0.849921,-0.102817,0.858718,0,0
735,-0.365845,-2.51833,-4.17691,11.6727,937.802,-137.083,-58.8101,922.349,516.988,0,0,0.00120473,0.0001817,0.00747205,0.852791,-0.104614,0.861658,0,0
736,-0.363934,-2.51834,-4.16908,11.6807,930.663,-135.261,-56.8296,915.659,525.21,0,0,0.00120473,0.0001817,0.00682382,0.855661,-0.106411,0.864597,0,0
737,-0.362023,-2.51835,-4.16126,11.6888,923.523,-133.439,-54.8489,908.969,533.432,0,0,0.00120473,0.0001817,0.00617554,0.858531,-0.108209,0.867537,0,0
738,-0.360113,-2.51835,-4.15343,11.6969,914.993,-131.991,-53.021,900.781,540.774,0,0,0.00120473,0.0001817,0.00561432,0.861934,-0.10886,0.870705,0,0
739,-0.358202,-2.51836,-4.14561,11.7049,905.472,-130.81,-51.3018,891.526,547.487,0,0,0.00120473,0.0001817,0.00511509,0.865717,-0.108695,0.874037,0,0
740,-0.356291,-2.51837,-4.13778,11.713,895.95,-129.628,-49.5825,882.27,554.201,0,0,0.00120473,0.0001817,0.00461584,0.869501,-0.108529,0.877368,0,0
741,-0.35438,-2.51838,-4.12996,11.721,887.16,-125.655,-46.7247,874.192,562.708,0,0,0.00120473,0.0001817,0.00355944,0.864777,-0.109742,0.872735,0,0
742,-0.340679,-2.51838,-4.129,11.7347,878.298,-121.472,-46.164,865.542,567.393,0,0,0.00120473,0.0001817,0.00330346,0.865698,-0.103571,0.873145,0,0
743,-0.326978,-2.51839,-4.12804,11.7485,872.471,-116.439,-45.5304,860.012,571.577,0,0,0.00120473,0.0001817,0.00302759,0.861817,-0.0961958,0.868846,0,0
744,-0.313278,-2.5184,-4.12708,11.7622,866.642,-111.405,-44.8967,854.482,575.759,0,0,0.00120473,0.0001817,0.00275171,0.857936,-0.08882,0.864548,0,0
745,-0.299577,-2.5184,-4.12612,11.776,860.813,-106.371,-44.2631,848.951,579.942,0,0,0.00120473,0.0001817,0.00247583,0.854055,-0.0814443,0.860249,0,0
746,-0.285876,-2.51841,-4.12516,11.7897,854.986,-101.338,-43.6295,843.422,584.126,0,0,0.00120473,0.0001817,0.00219997,0.850174,-0.0740686,0.855951,0,0
747,-0.272176,-2.51842,-4.1242,11.8034,849.157,-96.3044,-42.9959,837.891,588.309,0,0,0.00120473,0.0001817,0.00192409,0.846293,-0.0666928,0.851652,0,0
748,-0.258475,-2.51842,-4.12324,11.8172,843.328,-91.2709,-42.3622,832.361,592.492,0,0,0.00120473,0.0001817,0.00164821,0.842412,-0.0593171,0.847353,0,0
749,-0.244774,-2.51843,-4.12228,11.8309,837.501,-86.2374,-41.7286,826.831,596.675,0,0,0.00120473,0.0001817,0.00137234,0.838531,-0.0519414,0.843055,0,0
750,-0.231074,-2.51844,-4.12132,11.8446,831.672,-81.2039,-41.095,821.3,600.858,0,0,0.00120473,0.0001817,0.00109646,0.83465,-0.0445657,0.838756,0,0
751,-0.217373,-2.51844,-4.12036,11.8584,825.844,-76.1703,-40.4614,815.77,605.041,0,0,0.00120473,0.0001817,0.000820581,0.830769,-0.0371899,0.834458,0,0
752,-0.203672,-2.51845,-4.1194,11.8721,820.016,-71.1369,-39.8277,810.24,609.224,0,0,0.00120473,0.0001817,0.000544719,0.826888,-0.0298143,0.830159,0,0
753,-0.189971,-2.51846,-4.11844,11.8858,814.187,-66.1033,-39.1941,804.71,613.407,0,0,0.00120473,0.0001817,0.000268837,0.823007,-0.0224385,0.825861,0,0
754,-0.176271,-2.51846,-4.11748,11.8996,808.36,-61.0699,-38.5605,799.18,617.59,0,0,0.00120473,0.0001817,-7.03E-06,0.819126,-0.0150629,0.821562,0,0
755,-0.16257,-2.51847,-4.11652,11.9133,802.531,-56.0363,-37.9269,793.65,621.773,0,0,0.00120473,0.0001817,-0.000282907,0.815245,-0.00768708,0.817264,0,0
756,-0.148869,-2.51848,-4.11557,11.927,797.813,-51.1809,-36.9394,789.294,626.147,0,0,0.00120473,0.0001817,-0.000558524,0.810559,-0.000823079,0.812249,0,0
757,-0.135169,-2.51848,-4.11461,11.9408,794.384,-44.89,-36.5861,786.331,628.949,0,0,0.00120473,0.0001817,-0.00138602,0.804675,0.00401774,0.806273,0,0
758,-0.121468,-2.51849,-4.11365,11.9545,789.684,-37.1509,-37.429,782.046,630.175,0,0,0.00120473,0.0001817,-0.00263228,0.799513,0.00836096,0.801018,0,0
759,-0.107767,-2.5185,-4.11269,11.9682,784.984,-29.4118,-38.272,777.76,631.401,0,0,0.00120473,0.0001817,-0.00387854,0.794351,0.0127042,0.795763,0,0
760,-0.0940665,-2.5185,-4.11173,11.982,780.284,-21.6727,-39.115,773.476,632.627,0,0,0.00120473,0.0001817,-0.00512478,0.789189,0.0170473,0.790509,0,0
761,-0.0803658,-2.51851,-4.11077,11.9957,775.584,-13.9336,-39.958,769.191,633.853,0,0,0.00120473,0.0001817,-0.00637104,0.784027,0.0213905,0.785254,0,0
762,-0.072978,-2.51852,-4.10722,12.0039,770.868,-9.71608,-38.2204,764.994,639.252,0,0,0.00120473,0.0001817,-0.00699088,0.778389,0.0240289,0.779581,0,0
763,-0.0655902,-2.51852,-4.10367,12.0121,766.151,-5.4986,-36.4829,760.797,644.652,0,0,0.00120473,0.0001817,-0.00761072,0.772751,0.0266672,0.773908,0,0
764,-0.0582024,-2.51853,-4.10012,12.0203,761.436,-1.28119,-34.745,756.6,650.052,0,0,0.00120473,0.0001817,-0.00823053,0.767112,0.0293055,0.768235,0,0
765,-0.0508146,-2.51854,-4.09657,12.0285,756.72,2.93629,-33.0075,752.403,655.452,0,0,0.00120473,0.0001817,-0.00885037,0.761474,0.0319438,0.762562,0,0
766,-0.0434268,-2.51854,-4.09302,12.0367,752.004,7.15377,-31.27,748.206,660.852,0,0,0.00120473,0.0001817,-0.00947021,0.755836,0.0345821,0.756889,0,0
767,-0.036039,-2.51855,-4.08947,12.0449,750.411,8.92626,-29.0191,747.058,665.824,0,0,0.00120473,0.0001817,-0.00939112,0.752874,0.0351856,0.753875,0,0
768,-0.0286512,-2.51855,-4.08592,12.0531,750.639,9.27475,-26.4698,747.686,670.545,0,0,0.00120473,0.0001817,-0.008905,0.751473,0.0346039,0.752412,0,0
769,-0.0212634,-2.51856,-4.08237,12.0613,750.867,9.62325,-23.9205,748.316,675.267,0,0,0.00120473,0.0001817,-0.00841888,0.750072,0.0340221,0.750949,0,0
770,-0.0138757,-2.51857,-4.07882,12.0695,750.798,12.5843,-22.4445,748.15,679.271,0,0,0.00120473,0.0001817,-0.00847059,0.748764,0.0355901,0.749726,0,0
771,-0.00648786,-2.51857,-4.07527,12.0777,750.666,16.0995,-21.1962,747.817,683.122,0,0,0.00120473,0.0001817,-0.00863638,0.747477,0.037614,0.748553,0,0
772,0.000899929,-2.51858,-4.07172,12.0859,750.784,18.771,-20.1822,747.817,687.093,0,0,0.00120473,0.0001817,-0.00866908,0.746744,0.0392815,0.747916,0,0
773,0.00828772,-2.51859,-4.06817,12.0941,751.701,18.7396,-19.9202,748.89,691.445,0,0,0.00120473,0.0001817,-0.00827547,0.747792,0.0398069,0.748995,0,0
774,0.0156755,-2.51859,-4.06462,12.1023,752.618,18.7083,-19.6582,749.963,695.797,0,0,0.00120473,0.0001817,-0.00788187,0.74884,0.0403324,0.750074,0,0
775,0.0230633,-2.5186,-4.06107,12.1105,757.028,19.4646,-18.9918,754.675,699.653,0,0,0.00120473,0.0001817,-0.00728617,0.747203,0.0414193,0.748552,0,0
776,0.0304511,-2.5186,-4.05752,12.1186,763.714,20.7345,-18.0625,761.758,703.184,0,0,0.00120473,0.0001817,-0.00655888,0.743817,0.0428721,0.745335,0,0
777,0.0378389,-2.51861,-4.05397,12.1268,770.399,22.0044,-17.1331,768.841,706.716,0,0,0.00120473,0.0001817,-0.0058316,0.740432,0.0443249,0.742118,0,0
778,0.0452267,-2.51862,-4.05042,12.135,777.098,23.3835,-16.462,775.873,709.876,0,0,0.00120473,0.0001817,-0.00512612,0.7374,0.0457999,0.739256,0,0
779,0.0526145,-2.51862,-4.04687,12.1432,783.91,25.7072,-18.0243,782.464,709.827,0,0,0.00120473,0.0001817,-0.00460919,0.737426,0.0474663,0.739453,0,0
780,0.0600022,-2.51863,-4.04332,12.1514,790.721,28.0308,-19.5865,789.054,709.779,0,0,0.00120473,0.0001817,-0.00409221,0.737452,0.0491326,0.73965,0,0
781,0.06739,-2.51863,-4.03976,12.1596,797.533,30.3545,-21.1487,795.644,709.731,0,0,0.00120473,0.0001817,-0.00357527,0.737478,0.0507989,0.739847,0,0
782,0.0765937,-2.51864,-4.0413,12.169,806.859,33.6054,-23.0332,804.707,706.419,0,0,0.00120473,0.0001817,-0.00329415,0.737903,0.0529635,0.740482,0,0
783,0.0857973,-2.51864,-4.04284,12.1783,816.186,36.8563,-24.9177,813.77,703.106,0,0,0.00120473,0.0001817,-0.00301304,0.738327,0.0551282,0.741117,0,0
784,0.0950009,-2.51864,-4.04438,12.1876,825.512,40.1072,-26.8022,822.833,699.794,0,0,0.00120473,0.0001817,-0.00273192,0.738752,0.0572928,0.741752,0,0
785,0.104205,-2.51865,-4.04592,12.197,834.839,43.3581,-28.6867,831.896,696.482,0,0,0.00120473,0.0001817,-0.00245077,0.739176,0.0594575,0.742387,0,0
786,0.113408,-2.51865,-4.04746,12.2063,844.165,46.609,-30.5712,840.959,693.169,0,0,0.00120473,0.0001817,-0.00216966,0.7396,0.0616222,0.743023,0,0
787,0.122612,-2.51865,-4.049,12.2156,853.493,49.86,-32.4557,850.022,689.857,0,0,0.00120473,0.0001817,-0.00188855,0.740025,0.0637869,0.743658,0,0
788,0.131815,-2.51865,-4.05054,12.225,862.866,53.5014,-35.2637,858.903,685.218,0,0,0.00120473,0.0001817,-0.0016854,0.741714,0.0660307,0.745558,0,0
789,0.141019,-2.51866,-4.05208,12.2343,872.255,57.2754,-38.3849,867.721,680.129,0,0,0.00120473,0.0001817,-0.00150868,0.743831,0.0683013,0.747888,0,0
790,0.150223,-2.51866,-4.05362,12.2436,881.644,61.0493,-41.5061,876.539,675.04,0,0,0.00120473,0.0001817,-0.00133197,0.745949,0.0705719,0.750217,0,0
791,0.159426,-2.51866,-4.05516,12.2529,891.033,64.8233,-44.6273,885.357,669.951,0,0,0.00120473,0.0001817,-0.00115526,0.748067,0.0728425,0.752547,0,0
792,0.16863,-2.51867,-4.0567,12.2623,900.422,68.597,-47.7481,894.176,664.863,0,0,0.00120473,0.0001817,-0.000978493,0.750184,0.0751131,0.754876,0,0
793,0.177833,-2.51867,-4.05823,12.2716,909.811,72.371,-50.8693,902.994,659.773,0,0,0.00120473,0.0001817,-0.000801781,0.752302,0.0773838,0.757206,0,0
794,0.187037,-2.51867,-4.05977,12.2809,919.2,76.1449,-53.9905,911.812,654.684,0,0,0.00120473,0.0001817,-0.00062507,0.754419,0.0796544,0.759535,0,0
795,0.196241,-2.51867,-4.06131,12.2903,928.589,79.9189,-57.1117,920.631,649.595,0,0,0.00120473,0.0001817,-0.000448358,0.756537,0.081925,0.761865,0,0
796,0.205444,-2.51868,-4.06285,12.2996,937.979,83.6929,-60.233,929.45,644.506,0,0,0.00120473,0.0001817,-0.000271662,0.758655,0.0841957,0.764195,0,0
797,0.214648,-2.51868,-4.06439,12.3089,947.368,87.4669,-63.3542,938.268,639.417,0,0,0.00120473,0.0001817,-9.50E-05,0.760773,0.0864663,0.766524,0,0
798,0.223852,-2.51868,-4.06593,12.3183,956.757,91.2406,-66.4751,947.086,634.329,0,0,0.00120473,0.0001817,8.18E-05,0.76289,0.0887369,0.768853,0,0
799,0.233055,-2.51869,-4.06747,12.3276,966.146,95.0146,-69.5963,955.905,629.24,0,0,0.00120473,0.0001817,0.000258531,0.765008,0.0910076,0.771183,0,0
800,0.242259,-2.51869,-4.06901,12.3369,975.535,98.7885,-72.7175,964.723,624.151,0,0,0.00120473,0.0001817,0.000435242,0.767125,0.0932782,0.773513,0,0
801,0.251462,-2.51869,-4.07055,12.3463,984.924,102.562,-75.8387,973.541,619.062,0,0,0.00120473,0.0001817,0.000611953,0.769243,0.0955488,0.775842,0,0
802,0.26008,-2.5187,-4.06306,12.3577,992.129,102.814,-72.3541,981.807,628.504,0,0,0.00120473,0.0001817,0.00186949,0.76174,0.0969851,0.768535,0,0
803,0.268698,-2.51871,-4.05558,12.3691,999.332,103.066,-68.8694,990.073,637.946,0,0,0.00120473,0.0001817,0.00312704,0.754237,0.0984213,0.761227,0,0
804,0.277316,-2.51872,-4.04809,12.3805,1006.54,103.317,-65.3848,998.339,647.388,0,0,0.00120473,0.0001817,0.00438458,0.746734,0.0998576,0.75392,0,0
805,0.285934,-2.51873,-4.0406,12.3919,1013.96,105.416,-66.2665,1005.74,650.558,0,0,0.00120473,0.0001817,0.00527354,0.745209,0.101668,0.752595,0,0
806,0.294552,-2.51874,-4.03312,12.4033,1021.44,107.927,-68.1234,1012.95,652.326,0,0,0.00120473,0.0001817,0.00608014,0.745019,0.103562,0.752606,0,0
807,0.30317,-2.51875,-4.02563,12.4148,1028.91,110.437,-69.9803,1020.16,654.094,0,0,0.00120473,0.0001817,0.00688674,0.74483,0.105456,0.752617,0,0
808,0.311788,-2.51876,-4.01815,12.4262,1030.07,111.007,-69.5685,1021.27,660.077,0,0,0.00120473,0.0001817,0.00792987,0.744893,0.106981,0.752861,0,0
809,0.320406,-2.51877,-4.01066,12.4376,1027.81,110.47,-66.9523,1019.04,660.864,0,0,0.00120473,0.0001817,0.00935666,0.745316,0.108148,0.75343,0,0
810,0.329024,-2.51878,-4.00317,12.449,1025.55,109.934,-64.336,1016.81,661.652,0,0,0.00120473,0.0001817,0.0107835,0.745739,0.109316,0.753998,0,0
811,0.337642,-2.51879,-3.99569,12.4604,1026.95,111.049,-61.3348,1018.1,662.994,0,0,0.00120473,0.0001817,0.0119429,0.747677,0.112307,0.756537,0,0
812,0.346259,-2.5188,-3.9882,12.4718,1028.57,112.263,-58.3107,1019.6,664.369,0,0,0.00120473,0.0001817,0.0130864,0.749706,0.115407,0.759193,0,0
813,0.354877,-2.51881,-3.98072,12.4832,1030.19,113.476,-55.2866,1021.11,665.744,0,0,0.00120473,0.0001817,0.0142299,0.751735,0.118507,0.761849,0,0
814,0.363495,-2.51882,-3.97323,12.4947,1031.81,114.69,-52.2625,1022.61,667.119,0,0,0.00120473,0.0001817,0.0153734,0.753763,0.121606,0.764505,0,0
815,0.372113,-2.51883,-3.96574,12.5061,1033.43,115.904,-49.2385,1024.12,668.494,0,0,0.00120473,0.0001817,0.0165169,0.755792,0.124706,0.767161,0,0
816,0.380731,-2.51884,-3.95826,12.5175,1035.05,117.118,-46.2144,1025.62,669.869,0,0,0.00120473,0.0001817,0.0176604,0.757821,0.127806,0.769817,0,0
817,0.389349,-2.51885,-3.95077,12.5289,1036.67,118.331,-43.1903,1027.13,671.244,0,0,0.00120473,0.0001817,0.018804,0.759849,0.130905,0.772473,0,0
818,0.397967,-2.51886,-3.94329,12.5403,1038.35,119.456,-40.098,1028.71,672.608,0,0,0.00120473,0.0001817,0.0199258,0.761518,0.13381,0.774734,0,0
819,0.406585,-2.51887,-3.9358,12.5517,1040.37,120.103,-36.6379,1030.74,673.917,0,0,0.00120473,0.0001817,0.020931,0.761244,0.135664,0.774871,0,0
820,0.415203,-2.51888,-3.92832,12.5631,1042.39,120.75,-33.1777,1032.76,675.225,0,0,0.00120473,0.0001817,0.0219363,0.76097,0.137518,0.775007,0,0
821,0.423821,-2.51889,-3.92083,12.5746,1044.4,121.397,-29.7176,1034.79,676.534,0,0,0.00120473,0.0001817,0.0229414,0.760697,0.139372,0.775143,0,0
822,0.423551,-2.5189,-3.90845,12.5869,1035.61,118.153,-25.4692,1026.2,676.939,0,0,0.00120473,0.0001817,0.0242594,0.759662,0.138101,0.773998,0,0
823,0.423282,-2.51891,-3.89607,12.5993,1026.81,114.909,-21.221,1017.62,677.345,0,0,0.00120473,0.0001817,0.0255774,0.758627,0.136829,0.772853,0,0
824,0.423012,-2.51892,-3.88369,12.6117,1018.02,111.664,-16.9727,1009.03,677.751,0,0,0.00120473,0.0001817,0.0268954,0.757592,0.135557,0.771708,0,0
825,0.422743,-2.51893,-3.87131,12.6241,1009.22,108.42,-12.7244,1000.45,678.156,0,0,0.00120473,0.0001817,0.0282134,0.756558,0.134285,0.770562,0,0
826,0.422474,-2.51894,-3.85893,12.6365,1000.42,105.176,-8.47612,991.867,678.562,0,0,0.00120473,0.0001817,0.0295314,0.755523,0.133013,0.769417,0,0
827,0.422204,-2.51895,-3.84655,12.6489,991.629,101.931,-4.22789,983.284,678.968,0,0,0.00120473,0.0001817,0.0308493,0.754488,0.131741,0.768272,0,0
828,0.421935,-2.51896,-3.83417,12.6612,982.834,98.687,0.0204254,974.7,679.373,0,0,0.00120473,0.0001817,0.0321673,0.753454,0.130469,0.767127,0,0
829,0.421665,-2.51897,-3.82179,12.6736,974.038,95.4427,4.26872,966.116,679.779,0,0,0.00120473,0.0001817,0.0334853,0.752419,0.129198,0.765982,0,0
830,0.421396,-2.51898,-3.80942,12.686,965.243,92.1984,8.51695,957.532,680.185,0,0,0.00120473,0.0001817,0.0348033,0.751384,0.127926,0.764837,0,0
831,0.421127,-2.51899,-3.79704,12.6984,956.446,88.9541,12.7652,948.948,680.591,0,0,0.00120473,0.0001817,0.0361213,0.750349,0.126654,0.763691,0,0
832,0.420857,-2.519,-3.78466,12.7108,947.651,85.7098,17.0136,940.365,680.996,0,0,0.00120473,0.0001817,0.0374392,0.749315,0.125382,0.762546,0,0
833,0.420588,-2.51901,-3.77228,12.7232,938.856,82.4655,21.2618,931.781,681.402,0,0,0.00120473,0.0001817,0.0387572,0.74828,0.12411,0.761401,0,0
834,0.420319,-2.51902,-3.7599,12.7355,930.06,79.2212,25.5101,923.197,681.807,0,0,0.00120473,0.0001817,0.0400752,0.747245,0.122838,0.760256,0,0
835,0.420049,-2.51903,-3.74752,12.7479,921.264,75.9769,29.7584,914.613,682.213,0,0,0.00120473,0.0001817,0.0413932,0.746211,0.121566,0.759111,0,0
836,0.41978,-2.51904,-3.73514,12.7603,912.469,72.7326,34.0066,906.03,682.619,0,0,0.00120473,0.0001817,0.0427111,0.745176,0.120294,0.757966,0,0
837,0.41951,-2.51905,-3.72276,12.7727,903.673,69.4883,38.2549,897.446,683.024,0,0,0.00120473,0.0001817,0.0440291,0.744141,0.119023,0.75682,0,0
838,0.419241,-2.51906,-3.71038,12.7851,894.878,66.244,42.5032,888.862,683.43,0,0,0.00120473,0.0001817,0.0453471,0.743106,0.117751,0.755675,0,0
839,0.418972,-2.51907,-3.698,12.7974,891.076,62.4889,48.0779,884.983,684.471,0,0,0.00120473,0.0001817,0.0467154,0.742232,0.119206,0.75533,0,0
840,0.418702,-2.51908,-3.68562,12.8098,887.552,58.7054,53.7263,881.364,685.547,0,0,0.00120473,0.0001817,0.0480864,0.741366,0.120813,0.75503,0,0
841,0.418433,-2.51909,-3.67324,12.8222,884.028,54.9219,59.3747,877.746,686.622,0,0,0.00120473,0.0001817,0.0494574,0.740501,0.122421,0.75473,0,0
842,0.411528,-2.51909,-3.66011,12.837,872.591,49.165,64.1165,866.426,686.686,0,0,0.00120473,0.0001817,0.0507326,0.739248,0.120962,0.753439,0,0
843,0.404623,-2.5191,-3.64699,12.8519,861.154,43.4082,68.8582,855.106,686.749,0,0,0.00120473,0.0001817,0.0520077,0.737995,0.119504,0.752148,0,0
844,0.397718,-2.51911,-3.63386,12.8667,849.717,37.6513,73.5999,843.785,686.813,0,0,0.00120473,0.0001817,0.0532828,0.736742,0.118045,0.750857,0,0
845,0.390813,-2.51912,-3.62073,12.8815,838.28,31.8944,78.3416,832.464,686.876,0,0,0.00120473,0.0001817,0.054558,0.735489,0.116587,0.749566,0,0
846,0.383909,-2.51912,-3.6076,12.8964,826.857,26.1855,82.9225,821.079,687.395,0,0,0.00120473,0.0001817,0.055798,0.724211,0.117309,0.73882,0,0
847,0.377004,-2.51913,-3.59448,12.9112,814.989,22.1534,84.7575,809.495,680.399,0,0,0.00120473,0.0001817,0.0577668,0.72971,0.113834,0.743499,0,0
848,0.370099,-2.51914,-3.58135,12.926,801.864,17.6077,84.1766,796.648,668.314,0,0,0.00120473,0.0001817,0.0606571,0.737708,0.111131,0.750785,0,0
849,0.363194,-2.51915,-3.56822,12.9409,788.173,12.4175,82.928,783.177,655.211,0,0,0.00120473,0.0001817,0.0638728,0.743262,0.109779,0.755986,0,0
850,0.356289,-2.51915,-3.55509,12.9557,774.482,7.22722,81.6794,769.705,642.109,0,0,0.00120473,0.0001817,0.0670885,0.748816,0.108427,0.761187,0,0
851,0.349384,-2.51916,-3.54196,12.9705,760.79,2.03696,80.4308,756.234,629.006,0,0,0.00120473,0.0001817,0.0703042,0.754369,0.107075,0.766388,0,0
852,0.342479,-2.51917,-3.52884,12.9854,747.024,-2.36615,78.0144,742.797,617.999,0,0,0.00120473,0.0001817,0.0726988,0.754497,0.104606,0.765949,0,0
853,0.335575,-2.51918,-3.51571,13.0002,740.883,-3.4816,76.8085,736.743,603.95,0,0,0.00120473,0.0001817,0.0714118,0.755686,0.0989751,0.766437,0,0
854,0.32867,-2.51918,-3.50258,13.015,736.075,-4.00924,75.4736,732.028,591.909,0,0,0.00120473,0.0001817,0.0695894,0.755887,0.0936171,0.765929,0,0
855,0.321765,-2.51919,-3.48945,13.0299,731.266,-4.53688,74.1387,727.313,579.867,0,0,0.00120473,0.0001817,0.0677669,0.756088,0.0882589,0.765422,0,0
856,0.31486,-2.5192,-3.47633,13.0447,726.457,-5.06453,72.8037,722.597,567.826,0,0,0.00120473,0.0001817,0.0659443,0.75629,0.0829007,0.764914,0,0
857,0.307955,-2.51921,-3.4632,13.0595,721.649,-5.59217,71.4689,717.883,555.785,0,0,0.00120473,0.0001817,0.0641219,0.756491,0.0775426,0.764407,0,0
858,0.30105,-2.51921,-3.45007,13.0744,716.841,-6.1198,70.1339,713.167,543.744,0,0,0.00120473,0.0001817,0.0622994,0.756693,0.0721844,0.7639,0,0
859,0.294145,-2.51922,-3.43694,13.0892,712.032,-6.64744,68.799,708.452,531.702,0,0,0.00120473,0.0001817,0.0604768,0.756894,0.0668263,0.763392,0,0
860,0.28724,-2.51923,-3.42381,13.104,707.224,-7.17508,67.4641,703.737,519.661,0,0,0.00120473,0.0001817,0.0586544,0.757096,0.0614682,0.762885,0,0
861,0.280336,-2.51924,-3.41069,13.1189,702.415,-7.70272,66.1292,699.022,507.62,0,0,0.00120473,0.0001817,0.0568319,0.757297,0.05611,0.762377,0,0
862,0.270219,-2.51922,-3.42828,13.1392,700.9,-6.70527,64.5604,697.685,518.833,0,0,0.00120473,0.0001817,0.0534679,0.752814,0.0529562,0.757189,0,0
863,0.260103,-2.5192,-3.44588,13.1595,702.623,-6.1069,64.2374,699.465,530.165,0,0,0.00120473,0.0001817,0.0506087,0.746302,0.0531109,0.750602,0,0
864,0.249986,-2.51918,-3.46347,13.1798,704.345,-5.50852,63.9143,701.244,541.497,0,0,0.00120473,0.0001817,0.0477495,0.73979,0.0532654,0.744015,0,0
865,0.23987,-2.51916,-3.48107,13.2001,706.066,-4.91014,63.5913,703.024,552.828,0,0,0.00120473,0.0001817,0.0448902,0.733277,0.05342,0.737428,0,0
866,0.229753,-2.51914,-3.49866,13.2204,707.789,-4.31176,63.2683,704.804,564.16,0,0,0.00120473,0.0001817,0.042031,0.726765,0.0535747,0.730842,0,0
867,0.219637,-2.51912,-3.51626,13.2406,709.511,-3.71338,62.9452,706.583,575.491,0,0,0.00120473,0.0001817,0.0391718,0.720253,0.0537292,0.724255,0,0
868,0.209521,-2.51911,-3.53385,13.2609,711.233,-3.11499,62.6222,708.362,586.823,0,0,0.00120473,0.0001817,0.0363125,0.71374,0.0538838,0.717668,0,0
869,0.199404,-2.51909,-3.55145,13.2812,715.737,-4.36115,59.2629,712.932,591.897,0,0,0.00120473,0.0001817,0.0355689,0.70989,0.0536639,0.713744,0,0
870,0.189288,-2.51907,-3.56904,13.3015,716.197,-6.59187,53.8027,713.556,594.854,0,0,0.00120473,0.0001817,0.0350745,0.705973,0.0520054,0.709661,0,0
871,0.179171,-2.51905,-3.58664,13.3218,716.657,-8.82259,48.3426,714.179,597.812,0,0,0.00120473,0.0001817,0.0345802,0.702056,0.0503468,0.705578,0,0
872,0.169055,-2.51903,-3.60423,13.3421,717.117,-11.0533,42.8824,714.802,600.769,0,0,0.00120473,0.0001817,0.0340858,0.698139,0.0486882,0.701495,0,0
873,0.158938,-2.51901,-3.62183,13.3624,717.578,-13.284,37.4223,715.426,603.726,0,0,0.00120473,0.0001817,0.0335915,0.694223,0.0470297,0.697412,0,0
874,0.148822,-2.51899,-3.63942,13.3827,718.038,-15.5147,31.9622,716.05,606.684,0,0,0.00120473,0.0001817,0.0330971,0.690306,0.0453711,0.693329,0,0
875,0.138705,-2.51898,-3.65702,13.403,716.786,-17.6123,27.0596,715.032,610.505,0,0,0.00120473,0.0001817,0.0322582,0.683633,0.0428827,0.686433,0,0
876,0.128589,-2.51896,-3.67461,13.4233,711.098,-19.1996,24.2683,709.772,616.261,0,0,0.00120473,0.0001817,0.0303807,0.671133,0.0384283,0.673543,0,0
877,0.118473,-2.51894,-3.69221,13.4436,715.233,-20.6913,21.7476,713.984,615.457,0,0,0.00120473,0.0001817,0.0297229,0.681315,0.0396998,0.683552,0,0
878,0.108356,-2.51892,-3.7098,13.4639,722.22,-20.3467,17.0281,720.962,613.195,0,0,0.00120473,0.0001817,0.0278632,0.684314,0.0396539,0.686394,0,0
879,0.0982397,-2.5189,-3.7274,13.4842,731.407,-18.5864,10.6135,730.073,609.809,0,0,0.00120473,0.0001817,0.0250769,0.681778,0.0385924,0.683711,0,0
880,0.0881233,-2.51888,-3.74499,13.5045,740.595,-16.8262,4.19899,739.185,606.422,0,0,0.00120473,0.0001817,0.0222906,0.679242,0.0375309,0.681029,0,0
881,0.0780068,-2.51886,-3.76259,13.5248,748.256,-15.2557,-1.52008,746.802,604.456,0,0,0.00120473,0.0001817,0.0195936,0.677334,0.036455,0.678973,0,0
882,0.0657218,-2.51885,-3.76938,13.5388,737.616,-18.1783,0.415987,736.497,610.945,0,0,0.00120473,0.0001817,0.0185207,0.678499,0.034042,0.679882,0,0
883,0.0534367,-2.51884,-3.77617,13.5529,726.976,-21.1009,2.35207,726.191,617.434,0,0,0.00120473,0.0001817,0.0174478,0.679663,0.031629,0.680791,0,0
884,0.0411517,-2.51883,-3.78295,13.5669,720.261,-22.4058,3.4833,719.699,620.882,0,0,0.00120473,0.0001817,0.0160943,0.678677,0.0301437,0.679645,0,0
885,0.0288666,-2.51882,-3.78974,13.5809,720.54,-20.8281,3.1805,720.001,618.911,0,0,0.00120473,0.0001817,0.0142406,0.673863,0.0303114,0.674839,0,0
886,0.0165816,-2.51881,-3.79653,13.595,720.819,-19.2506,2.87771,720.303,616.94,0,0,0.00120473,0.0001817,0.012387,0.669049,0.0304791,0.670034,0,0
887,0.00429654,-2.5188,-3.80332,13.609,721.097,-17.6729,2.5749,720.605,614.969,0,0,0.00120473,0.0001817,0.0105333,0.664235,0.0306467,0.665228,0,0
888,-0.00798851,-2.51879,-3.81011,13.623,720.834,-16.8111,1.53292,720.329,614.208,0,0,0.00120473,0.0001817,0.00852184,0.663377,0.0290883,0.664426,0,0
889,-0.0202736,-2.51878,-3.8169,13.6371,720.149,-16.5055,-0.0832911,719.604,614.386,0,0,0.00120473,0.0001817,0.00638779,0.665591,0.0261889,0.666734,0,0
890,-0.0325586,-2.51876,-3.82369,13.6511,719.465,-16.1998,-1.69953,718.88,614.565,0,0,0.00120473,0.0001817,0.00425372,0.667807,0.0232894,0.669043,0,0
891,-0.0448437,-2.51875,-3.83047,13.6652,718.781,-15.8942,-3.31576,718.156,614.744,0,0,0.00120473,0.0001817,0.00211966,0.670022,0.02039,0.671351,0,0
892,-0.0571287,-2.51874,-3.83726,13.6792,718.097,-15.5885,-4.93199,717.432,614.922,0,0,0.00120473,0.0001817,-1.44E-05,0.672237,0.0174906,0.67366,0,0
893,-0.0694137,-2.51873,-3.84405,13.6932,717.412,-15.2829,-6.54823,716.708,615.101,0,0,0.00120473,0.0001817,-0.00214846,0.674452,0.0145911,0.675968,0,0
894,-0.0816988,-2.51872,-3.85084,13.7073,716.727,-14.9772,-8.16444,715.983,615.28,0,0,0.00120473,0.0001817,-0.00428251,0.676666,0.0116917,0.678277,0,0
895,-0.0939838,-2.51871,-3.85763,13.7213,716.043,-14.6716,-9.78068,715.258,615.458,0,0,0.00120473,0.0001817,-0.00641657,0.678882,0.00879227,0.680585,0,0
896,-0.106269,-2.5187,-3.86442,13.7353,715.359,-14.3659,-11.3969,714.534,615.637,0,0,0.00120473,0.0001817,-0.00855064,0.681097,0.00589283,0.682894,0,0
897,-0.118554,-2.51869,-3.8712,13.7494,714.675,-14.0603,-13.0131,713.81,615.816,0,0,0.00120473,0.0001817,-0.0106847,0.683312,0.00299338,0.685203,0,0
898,-0.130839,-2.51868,-3.87799,13.7634,713.99,-13.7546,-14.6294,713.086,615.995,0,0,0.00120473,0.0001817,-0.0128188,0.685527,9.39E-05,0.687511,0,0
899,-0.143124,-2.51867,-3.88478,13.7774,713.306,-13.4489,-16.2456,712.361,616.173,0,0,0.00120473,0.0001817,-0.0149528,0.687742,-0.00280546,0.689819,0,0
900,-0.155409,-2.51866,-3.89157,13.7915,709.645,-13.5342,-17.0881,708.633,615.554,0,0,0.00120473,0.0001817,-0.0163833,0.691269,-0.0062555,0.693463,0,0
901,-0.167694,-2.51864,-3.89836,13.8055,702.525,-14.0737,-17.0314,701.413,614.006,0,0,0.00120473,0.0001817,-0.016996,0.696322,-0.0103455,0.698657,0,0
902,-0.159799,-2.51866,-3.88418,13.8217,709.44,-14.6997,-17.5116,708.398,610.415,0,0,0.00120473,0.0001817,-0.0166564,0.689509,-0.00782408,0.691741,0,0
903,-0.151904,-2.51867,-3.87,13.838,711.325,-15.9864,-16.684,710.307,605.475,0,0,0.00120473,0.0001817,-0.0151275,0.684915,-0.00623344,0.687082,0,0
904,-0.144009,-2.51869,-3.85582,13.8542,711.018,-17.5608,-15.287,710.003,599.948,0,0,0.00120473,0.0001817,-0.0130807,0.681286,-0.00504798,0.683404,0,0
905,-0.136115,-2.5187,-3.84164,13.8704,710.712,-19.1352,-13.89,709.7,594.42,0,0,0.00120473,0.0001817,-0.011034,0.677658,-0.00386251,0.679727,0,0
906,-0.12822,-2.51872,-3.82746,13.8867,710.406,-20.7096,-12.493,709.397,588.892,0,0,0.00120473,0.0001817,-0.00898726,0.674029,-0.00267707,0.67605,0,0
907,-0.120325,-2.51873,-3.81328,13.9029,710.1,-22.284,-11.096,709.094,583.365,0,0,0.00120473,0.0001817,-0.00694053,0.670401,-0.0014916,0.672372,0,0
908,-0.11243,-2.51875,-3.7991,13.9191,709.793,-23.8584,-9.69897,708.791,577.837,0,0,0.00120473,0.0001817,-0.00489379,0.666772,-0.000306137,0.668695,0,0
909,-0.104535,-2.51876,-3.78492,13.9353,709.488,-25.4328,-8.30198,708.488,572.309,0,0,0.00120473,0.0001817,-0.00284706,0.663144,0.000879302,0.665018,0,0
910,-0.09664,-2.51878,-3.77073,13.9516,709.181,-27.0072,-6.90496,708.185,566.782,0,0,0.00120473,0.0001817,-0.000800322,0.659515,0.00206477,0.66134,0,0
911,-0.0887451,-2.51879,-3.75655,13.9678,708.876,-28.5816,-5.50796,707.882,561.254,0,0,0.00120473,0.0001817,0.0012464,0.655887,0.00325021,0.657663,0,0
912,-0.0808502,-2.51881,-3.74237,13.984,708.569,-30.1559,-4.11094,707.579,555.726,0,0,0.00120473,0.0001817,0.00329314,0.652258,0.00443568,0.653985,0,0
913,-0.0729553,-2.51882,-3.72819,14.0003,708.263,-31.7303,-2.71392,707.276,550.199,0,0,0.00120473,0.0001817,0.00533988,0.648629,0.00562114,0.650308,0,0
914,-0.0650604,-2.51884,-3.71401,14.0165,708.417,-33.196,-1.98719,707.392,545.249,0,0,0.00120473,0.0001817,0.00697883,0.646259,0.00620883,0.647881,0,0
915,-0.0571655,-2.51885,-3.69983,14.0327,710.395,-34.2304,-3.91947,709.17,542.592,0,0,0.00120473,0.0001817,0.00700006,0.64888,0.00442516,0.650413,0,0
916,-0.0492706,-2.51887,-3.68565,14.049,712.374,-35.2648,-5.85176,710.948,539.935,0,0,0.00120473,0.0001817,0.00702129,0.651501,0.00264148,0.652945,0,0
917,-0.0413757,-2.51888,-3.67147,14.0652,713.763,-35.3527,-5.38531,712.202,536.376,0,0,0.00120473,0.0001817,0.00713521,0.652819,0.00244592,0.654165,0,0
918,-0.0334808,-2.5189,-3.65729,14.0814,714.391,-34.2181,-1.82053,712.776,531.651,0,0,0.00120473,0.0001817,0.0073688,0.652454,0.00430161,0.653692,0,0
919,-0.0255859,-2.51891,-3.64311,14.0976,715.019,-33.0834,1.74425,713.35,526.926,0,0,0.00120473,0.0001817,0.00760238,0.652089,0.0061573,0.653218,0,0
920,-0.017691,-2.51893,-3.62893,14.1139,715.647,-31.9487,5.30906,713.925,522.202,0,0,0.00120473,0.0001817,0.007836,0.651724,0.00801303,0.652745,0,0
921,-0.00979612,-2.51894,-3.61475,14.1301,716.275,-30.814,8.87384,714.499,517.477,0,0,0.00120473,0.0001817,0.00806959,0.651359,0.00986872,0.652271,0,0
922,-0.0124602,-2.51895,-3.60832,14.1371,715.95,-30.6039,9.82828,714.122,513.521,0,0,0.00120473,0.0001817,0.00731807,0.651552,0.00901604,0.652467,0,0
923,-0.0151242,-2.51895,-3.60189,14.144,715.625,-30.3939,10.7828,713.745,509.565,0,0,0.00120473,0.0001817,0.00656655,0.651746,0.00816336,0.652663,0,0
924,-0.0177883,-2.51896,-3.59546,14.151,715.301,-30.1838,11.7373,713.369,505.609,0,0,0.00120473,0.0001817,0.00581505,0.65194,0.0073107,0.652859,0,0
925,-0.0204523,-2.51896,-3.58903,14.1579,714.976,-29.9737,12.6918,712.992,501.652,0,0,0.00120473,0.0001817,0.00506353,0.652134,0.00645802,0.653054,0,0
926,-0.0231164,-2.51896,-3.58261,14.1649,714.652,-29.7636,13.6462,712.615,497.696,0,0,0.00120473,0.0001817,0.00431202,0.652328,0.00560534,0.65325,0,0
927,-0.0257804,-2.51897,-3.57618,14.1719,714.327,-29.5535,14.6007,712.238,493.74,0,0,0.00120473,0.0001817,0.00356049,0.652521,0.00475265,0.653446,0,0
928,-0.0284444,-2.51897,-3.56975,14.1788,714.002,-29.3435,15.5551,711.86,489.784,0,0,0.00120473,0.0001817,0.00280898,0.652715,0.00389997,0.653642,0,0
929,-0.0311085,-2.51898,-3.56332,14.1858,713.678,-29.1334,16.5097,711.484,485.828,0,0,0.00120473,0.0001817,0.00205747,0.652909,0.00304732,0.653838,0,0
930,-0.0337725,-2.51898,-3.55689,14.1927,713.353,-28.9233,17.4641,711.107,481.872,0,0,0.00120473,0.0001817,0.00130596,0.653103,0.00219464,0.654033,0,0
931,-0.0364366,-2.51898,-3.55046,14.1997,713.028,-28.7132,18.4186,710.73,477.915,0,0,0.00120473,0.0001817,0.000554432,0.653297,0.00134195,0.654229,0,0
932,-0.0391006,-2.51899,-3.54403,14.2067,712.703,-28.5031,19.373,710.353,473.959,0,0,0.00120473,0.0001817,-0.00019708,0.653491,0.000489269,0.654425,0,0
933,-0.0417647,-2.51899,-3.5376,14.2136,712.379,-28.2931,20.3274,709.976,470.003,0,0,0.00120473,0.0001817,-0.000948591,0.653684,-0.000363411,0.65462,0,0
934,-0.0444287,-2.519,-3.53117,14.2206,712.055,-28.083,21.282,709.599,466.047,0,0,0.00120473,0.0001817,-0.0017001,0.653878,-0.00121607,0.654816,0,0
935,-0.0470928,-2.519,-3.52474,14.2275,711.73,-27.8729,22.2364,709.222,462.091,0,0,0.00120473,0.0001817,-0.00245161,0.654072,-0.00206875,0.655012,0,0
936,-0.0497568,-2.519,-3.51832,14.2345,711.405,-27.6628,23.1909,708.845,458.134,0,0,0.00120473,0.0001817,-0.00320314,0.654266,-0.00292143,0.655208,0,0
937,-0.0524209,-2.51901,-3.51189,14.2415,711.08,-27.4528,24.1454,708.468,454.178,0,0,0.00120473,0.0001817,-0.00395465,0.65446,-0.00377411,0.655403,0,0
938,-0.0550849,-2.51901,-3.50546,14.2484,710.755,-27.2427,25.0998,708.091,450.222,0,0,0.00120473,0.0001817,-0.00470618,0.654653,-0.0046268,0.655599,0,0
939,-0.057749,-2.51902,-3.49903,14.2554,710.431,-27.0326,26.0544,707.714,446.266,0,0,0.00120473,0.0001817,-0.00545767,0.654848,-0.00547945,0.655795,0,0
940,-0.060413,-2.51902,-3.4926,14.2623,710.107,-26.8225,27.0088,707.337,442.31,0,0,0.00120473,0.0001817,-0.0062092,0.655041,-0.00633214,0.655991,0,0
941,-0.0630771,-2.51902,-3.48617,14.2693,709.782,-26.6124,27.9633,706.96,438.354,0,0,0.00120473,0.0001817,-0.00696071,0.655235,-0.00718482,0.656186,0,0
942,-0.0709668,-2.51902,-3.48331,14.2777,709.047,-26.7585,27.7611,706.177,434.84,0,0,0.00120473,0.0001817,-0.00822132,0.655791,-0.00929571,0.656797,0,0
943,-0.0788566,-2.51902,-3.48045,14.2861,709.537,-25.2327,29.1621,706.721,435.058,0,0,0.00120473,0.0001817,-0.0095873,0.657958,-0.00973014,0.658997,0,0
944,-0.0867463,-2.51902,-3.47759,14.2945,710.028,-23.707,30.5631,707.264,435.276,0,0,0.00120473,0.0001817,-0.0109533,0.660125,-0.0101646,0.661197,0,0
945,-0.094636,-2.51902,-3.47473,14.3029,710.518,-22.1813,31.9641,707.808,435.493,0,0,0.00120473,0.0001817,-0.0123193,0.662292,-0.010599,0.663397,0,0
946,-0.102526,-2.51902,-3.47187,14.3113,711.009,-20.6555,33.3652,708.351,435.711,0,0,0.00120473,0.0001817,-0.0136852,0.664459,-0.0110334,0.665597,0,0
947,-0.110416,-2.51902,-3.46901,14.3196,711.499,-19.1298,34.7661,708.895,435.929,0,0,0.00120473,0.0001817,-0.0150512,0.666626,-0.0114678,0.667797,0,0
948,-0.118305,-2.51902,-3.46615,14.328,711.99,-17.6041,36.1671,709.438,436.146,0,0,0.00120473,0.0001817,-0.0164172,0.668793,-0.0119022,0.669997,0,0
949,-0.126195,-2.51901,-3.46329,14.3364,712.48,-16.0783,37.5681,709.982,436.364,0,0,0.00120473,0.0001817,-0.0177832,0.67096,-0.0123366,0.672197,0,0
950,-0.134085,-2.51901,-3.46043,14.3448,712.971,-14.5525,38.9692,710.525,436.582,0,0,0.00120473,0.0001817,-0.0191492,0.673127,-0.012771,0.674398,0,0
951,-0.141975,-2.51901,-3.45757,14.3532,713.462,-13.0269,40.3702,711.07,436.799,0,0,0.00120473,0.0001817,-0.0205151,0.675294,-0.0132054,0.676598,0,0
952,-0.149864,-2.51901,-3.45471,14.3616,713.952,-11.5011,41.7712,711.613,437.017,0,0,0.00120473,0.0001817,-0.0218811,0.677461,-0.0136399,0.678798,0,0
953,-0.157754,-2.51901,-3.45184,14.37,714.443,-9.97538,43.1722,712.157,437.235,0,0,0.00120473,0.0001817,-0.0232471,0.679628,-0.0140743,0.680998,0,0
954,-0.165644,-2.51901,-3.44898,14.3784,714.933,-8.44961,44.5733,712.7,437.452,0,0,0.00120473,0.0001817,-0.0246131,0.681795,-0.0145087,0.683198,0,0
955,-0.173534,-2.51901,-3.44612,14.3868,715.424,-6.9239,45.9743,713.244,437.67,0,0,0.00120473,0.0001817,-0.0259791,0.683962,-0.0149431,0.685398,0,0
956,-0.181423,-2.51901,-3.44326,14.3952,715.914,-5.39819,47.3752,713.787,437.888,0,0,0.00120473,0.0001817,-0.027345,0.686129,-0.0153775,0.687598,0,0
957,-0.189313,-2.519,-3.4404,14.4036,716.404,-3.87242,48.7763,714.331,438.105,0,0,0.00120473,0.0001817,-0.028711,0.688296,-0.0158119,0.689798,0,0
958,-0.197203,-2.519,-3.43754,14.412,717.579,-2.34054,50.0824,715.563,438.34,0,0,0.00120473,0.0001817,-0.0300534,0.690123,-0.0162218,0.691648,0,0
959,-0.205093,-2.519,-3.43468,14.4204,720.412,-0.831378,51.102,718.461,438.573,0,0,0.00120473,0.0001817,-0.0313623,0.690966,-0.0166218,0.692496,0,0
960,-0.212982,-2.519,-3.43182,14.4287,721.488,0.0902917,51.5105,719.537,438.157,0,0,0.00120473,0.0001817,-0.0330921,0.69028,-0.0178416,0.691878,0,0
961,-0.220872,-2.519,-3.42896,14.4371,723.453,1.32881,52.7423,721.234,439.455,0,0,0.00120473,0.0001817,-0.0345739,0.690253,-0.0193596,0.691936,0,0
962,-0.228887,-2.51899,-3.44073,14.4514,723.736,0.461533,49.4822,721.9,441.036,0,0,0.00120473,0.0001817,-0.0344273,0.692717,-0.0201312,0.694387,0,0
963,-0.236901,-2.51897,-3.4525,14.4656,722.223,-0.986025,46.1122,720.403,443.338,0,0,0.00120473,0.0001817,-0.0346755,0.693505,-0.0224529,0.695276,0,0
964,-0.244916,-2.51896,-3.46427,14.4799,720.123,-2.63038,42.5375,718.296,445.422,0,0,0.00120473,0.0001817,-0.0350646,0.69378,-0.0250492,0.695674,0,0
965,-0.25293,-2.51895,-3.47604,14.4941,718.023,-4.27473,38.9628,716.189,447.506,0,0,0.00120473,0.0001817,-0.0354537,0.694055,-0.0276454,0.696073,0,0
966,-0.260945,-2.51893,-3.48781,14.5083,715.921,-5.91906,35.3881,714.082,449.591,0,0,0.00120473,0.0001817,-0.0358429,0.694331,-0.0302417,0.696471,0,0
967,-0.268959,-2.51892,-3.49958,14.5226,713.821,-7.56342,31.8134,711.975,451.675,0,0,0.00120473,0.0001817,-0.036232,0.694606,-0.032838,0.69687,0,0
968,-0.276974,-2.51891,-3.51135,14.5368,711.721,-9.20778,28.2387,709.869,453.759,0,0,0.00120473,0.0001817,-0.0366212,0.694881,-0.0354342,0.697268,0,0
969,-0.284988,-2.5189,-3.52313,14.5511,709.62,-10.8521,24.664,707.761,455.844,0,0,0.00120473,0.0001817,-0.0370103,0.695157,-0.0380305,0.697667,0,0
970,-0.293003,-2.51888,-3.5349,14.5653,708.285,-12.4896,20.983,706.425,457.946,0,0,0.00120473,0.0001817,-0.0373731,0.695051,-0.0405993,0.697674,0,0
971,-0.301017,-2.51887,-3.54667,14.5795,707.164,-14.1252,17.2721,705.305,460.054,0,0,0.00120473,0.0001817,-0.0377284,0.694838,-0.0431603,0.697571,0,0
972,-0.309032,-2.51886,-3.55844,14.5938,705.978,-15.833,13.5848,704.121,462.162,0,0,0.00120473,0.0001817,-0.037993,0.694468,-0.0456102,0.69731,0,0
973,-0.317046,-2.51884,-3.57021,14.608,707.751,-16.787,10.306,705.663,465.793,0,0,0.00120473,0.0001817,-0.0384667,0.693803,-0.0505086,0.697319,0,0
974,-0.325061,-2.51883,-3.58198,14.6223,711.456,-16.952,7.11867,709.003,470.238,0,0,0.00120473,0.0001817,-0.0395388,0.693828,-0.0573094,0.69832,0,0
975,-0.333075,-2.51882,-3.59375,14.6365,715.162,-17.117,3.93135,712.344,474.684,0,0,0.00120473,0.0001817,-0.0406108,0.693854,-0.0641103,0.699321,0,0
976,-0.34109,-2.5188,-3.60552,14.6507,718.867,-17.282,0.744031,715.686,479.13,0,0,0.00120473,0.0001817,-0.0416829,0.69388,-0.0709112,0.700322,0,0
977,-0.349105,-2.51879,-3.61729,14.665,722.572,-17.4471,-2.44333,719.026,483.576,0,0,0.00120473,0.0001817,-0.0427549,0.693906,-0.077712,0.701323,0,0
978,-0.357119,-2.51878,-3.62906,14.6792,726.278,-17.6121,-5.63066,722.367,488.021,0,0,0.00120473,0.0001817,-0.0438269,0.693931,-0.0845129,0.702325,0,0
979,-0.365134,-2.51877,-3.64083,14.6935,724.732,-17.3605,-6.27449,720.748,488.744,0,0,0.00120473,0.0001817,-0.0447086,0.694187,-0.0904503,0.703289,0,0
980,-0.373148,-2.51875,-3.6526,14.7077,733.475,-22.9611,-8.2983,729.912,487.519,0,0,0.00120473,0.0001817,-0.0442223,0.690357,-0.095132,0.700784,0,0
981,-0.381163,-2.51874,-3.66437,14.7219,743.355,-29.1125,-10.5421,740.246,486.253,0,0,0.00120473,0.0001817,-0.0436178,0.686145,-0.0997307,0.697964,0,0
982,-0.373111,-2.51874,-3.67095,14.7323,731.924,-31.1023,-13.1787,728.957,484.774,0,0,0.00120473,0.0001817,-0.0410971,0.68374,-0.0946467,0.694264,0,0
983,-0.36506,-2.51874,-3.67753,14.7427,720.494,-33.0922,-15.8153,717.669,483.295,0,0,0.00120473,0.0001817,-0.0385763,0.681335,-0.0895628,0.690565,0,0
984,-0.357009,-2.51873,-3.6841,14.7531,709.063,-35.082,-18.4519,706.381,481.816,0,0,0.00120473,0.0001817,-0.0360556,0.67893,-0.0844789,0.686865,0,0
985,-0.348958,-2.51873,-3.69068,14.7635,697.633,-37.0718,-21.0885,695.092,480.337,0,0,0.00120473,0.0001817,-0.0335348,0.676525,-0.0793949,0.683165,0,0
986,-0.340907,-2.51873,-3.69726,14.7739,687.991,-39.9297,-24.0719,685.647,478.793,0,0,0.00120473,0.0001817,-0.0308279,0.673518,-0.0741801,0.678968,0,0
987,-0.332855,-2.51873,-3.70384,14.7843,682.402,-44.3917,-27.6065,680.353,477.221,0,0,0.00120473,0.0001817,-0.0278443,0.669317,-0.0688355,0.673833,0,0
988,-0.324804,-2.51873,-3.71041,14.7947,682.634,-44.5092,-27.6378,680.599,477.771,0,0,0.00120473,0.0001817,-0.027129,0.666532,-0.0663667,0.67086,0,0
989,-0.316753,-2.51873,-3.71699,14.8051,682.596,-44.6338,-27.6579,680.56,478.546,0,0,0.00120473,0.0001817,-0.0263785,0.664251,-0.0636223,0.668343,0,0
990,-0.308702,-2.51872,-3.72357,14.8155,681.929,-44.7749,-27.652,679.859,479.845,0,0,0.00120473,0.0001817,-0.0255462,0.663139,-0.0602385,0.666884,0,0
991,-0.30065,-2.51872,-3.73015,14.8259,683.066,-43.8575,-27.3424,681.024,484.388,0,0,0.00120473,0.0001817,-0.0249606,0.663231,-0.0572436,0.666807,0,0
992,-0.292599,-2.51872,-3.73672,14.8363,685.104,-42.4115,-26.8811,683.121,490.552,0,0,0.00120473,0.0001817,-0.0244982,0.663924,-0.054443,0.667421,0,0
993,-0.284548,-2.51872,-3.7433,14.8467,687.143,-40.9655,-26.4199,685.218,496.716,0,0,0.00120473,0.0001817,-0.0240358,0.664617,-0.0516424,0.668035,0,0
994,-0.276497,-2.51872,-3.74988,14.8571,689.181,-39.5194,-25.9586,687.315,502.879,0,0,0.00120473,0.0001817,-0.0235734,0.665311,-0.0488418,0.668648,0,0
995,-0.268446,-2.51871,-3.75646,14.8675,691.219,-38.0734,-25.4974,689.411,509.043,0,0,0.00120473,0.0001817,-0.023111,0.666004,-0.0460412,0.669262,0,0
996,-0.260394,-2.51871,-3.76303,14.8779,692.598,-36.7139,-24.8647,690.843,515.03,0,0,0.00120473,0.0001817,-0.0224928,0.666987,-0.0433625,0.670171,0,0
997,-0.252343,-2.51871,-3.76961,14.8883,693.885,-35.3666,-24.208,692.181,520.992,0,0,0.00120473,0.0001817,-0.0218527,0.668013,-0.040701,0.671122,0,0
998,-0.244292,-2.51871,-3.77619,14.8987,695.171,-34.0193,-23.5512,693.519,526.954,0,0,0.00120473,0.0001817,-0.0212125,0.669037,-0.0380395,0.672073,0,0
999,-0.236241,-2.51871,-3.78277,14.9091,696.457,-32.672,-22.8945,694.857,532.916,0,0,0.00120473,0.0001817,-0.0205723,0.670062,-0.035378,0.673024,0,0
1000,-0.228189,-2.51871,-3.78934,14.9195,697.744,-31.3247,-22.2377,696.195,538.878,0,0,0.00120473,0.0001817,-0.0199321,0.671087,-0.0327166,0.673975,0,0
1001,-0.220138,-2.5187,-3.79592,14.9299,699.03,-29.9775,-21.581,697.533,544.84,0,0,0.00120473,0.0001817,-0.019292,0.672112,-0.0300551,0.674926,0,0
1002,-0.210546,-2.51871,-3.7937,14.9397,699.799,-29.7844,-20.4313,698.339,546.397,0,0,0.00120473,0.0001817,-0.0178373,0.671074,-0.027579,0.673811,0,0
1003,-0.200955,-2.51872,-3.79147,14.9496,700.566,-29.5914,-19.2817,699.145,547.953,0,0,0.00120473,0.0001817,-0.0163827,0.670035,-0.0251028,0.672696,0,0
1004,-0.191363,-2.51872,-3.78925,14.9594,701.334,-29.3983,-18.1321,699.952,549.509,0,0,0.00120473,0.0001817,-0.014928,0.668996,-0.0226267,0.671581,0,0
1005,-0.181771,-2.51873,-3.78702,14.9693,702.103,-29.2053,-16.9824,700.758,551.065,0,0,0.00120473,0.0001817,-0.0134734,0.667958,-0.0201506,0.670466,0,0
1006,-0.172179,-2.51873,-3.7848,14.9791,702.87,-29.0122,-15.8328,701.564,552.622,0,0,0.00120473,0.0001817,-0.0120188,0.666919,-0.0176744,0.66935,0,0
1007,-0.162588,-2.51874,-3.78257,14.9889,703.639,-28.8192,-14.6832,702.371,554.178,0,0,0.00120473,0.0001817,-0.0105641,0.66588,-0.0151983,0.668235,0,0
1008,-0.152996,-2.51875,-3.78035,14.9988,704.407,-28.6262,-13.5335,703.177,555.734,0,0,0.00120473,0.0001817,-0.00910946,0.664842,-0.0127222,0.66712,0,0
1009,-0.143404,-2.51875,-3.77813,15.0086,705.174,-28.4331,-12.3839,703.983,557.29,0,0,0.00120473,0.0001817,-0.00765481,0.663803,-0.010246,0.666005,0,0
1010,-0.133812,-2.51876,-3.7759,15.0185,705.943,-28.2401,-11.2343,704.79,558.846,0,0,0.00120473,0.0001817,-0.00620017,0.662765,-0.00776989,0.66489,0,0
1011,-0.124221,-2.51876,-3.77368,15.0283,706.711,-28.047,-10.0846,705.596,560.403,0,0,0.00120473,0.0001817,-0.00474554,0.661726,-0.00529375,0.663775,0,0
1012,-0.114629,-2.51877,-3.77145,15.0382,707.479,-27.854,-8.93499,706.402,561.959,0,0,0.00120473,0.0001817,-0.0032909,0.660687,-0.00281759,0.66266,0,0
1013,-0.105037,-2.51878,-3.76923,15.048,708.247,-27.6609,-7.78537,707.209,563.515,0,0,0.00120473,0.0001817,-0.00183625,0.659649,-0.000341474,0.661545,0,0
1014,-0.0954455,-2.51878,-3.767,15.0579,709.014,-27.4679,-6.63573,708.015,565.071,0,0,0.00120473,0.0001817,-0.00038161,0.65861,0.00213468,0.660429,0,0
1015,-0.0858538,-2.51879,-3.76478,15.0677,709.783,-27.2748,-5.4861,708.821,566.628,0,0,0.00120473,0.0001817,0.00107304,0.657571,0.0046108,0.659314,0,0
1016,-0.076262,-2.51879,-3.76256,15.0776,710.551,-27.0818,-4.33647,709.628,568.184,0,0,0.00120473,0.0001817,0.00252768,0.656533,0.00708693,0.658199,0,0
1017,-0.0666703,-2.5188,-3.76033,15.0874,711.319,-26.8887,-3.18683,710.434,569.74,0,0,0.00120473,0.0001817,0.00398233,0.655494,0.00956308,0.657084,0,0
1018,-0.0570785,-2.51881,-3.75811,15.0973,712.087,-26.6957,-2.0372,711.24,571.296,0,0,0.00120473,0.0001817,0.00543697,0.654456,0.0120392,0.655969,0,0
1019,-0.0474868,-2.51881,-3.75588,15.1071,712.855,-26.5027,-0.887567,712.047,572.852,0,0,0.00120473,0.0001817,0.00689162,0.653417,0.0145153,0.654854,0,0
1020,-0.0378951,-2.51882,-3.75366,15.1169,713.623,-26.3096,0.262075,712.853,574.409,0,0,0.00120473,0.0001817,0.00834626,0.652378,0.0169915,0.653738,0,0
1021,-0.0283033,-2.51883,-3.75143,15.1268,714.391,-26.1166,1.4117,713.659,575.965,0,0,0.00120473,0.0001817,0.0098009,0.65134,0.0194676,0.652623,0,0
1022,-0.0188843,-2.51882,-3.76102,15.1402,716.04,-24.2748,2.11097,715.373,583.983,0,0,0.00120473,0.0001817,0.0104197,0.652964,0.0227119,0.654159,0,0
1023,-0.00946524,-2.51882,-3.77061,15.1537,717.688,-22.4331,2.81023,717.086,592.001,0,0,0.00120473,0.0001817,0.0110384,0.654588,0.0259562,0.655694,0,0
1024,-4.62E-05,-2.51881,-3.78019,15.1671,719.337,-20.5913,3.50949,718.8,600.02,0,0,0.00120473,0.0001817,0.0116572,0.656212,0.0292005,0.65723,0,0
1025,0.00937284,-2.51881,-3.78978,15.1806,720.308,-19.645,3.28401,719.79,609.551,0,0,0.00120473,0.0001817,0.0120785,0.662785,0.0302853,0.663774,0,0
1026,0.0187919,-2.51881,-3.79937,15.194,721.024,-19.0351,2.71132,720.51,619.651,0,0,0.00120473,0.0001817,0.0124257,0.671216,0.0305594,0.672199,0,0
1027,0.0282109,-2.5188,-3.80896,15.2074,721.74,-18.4251,2.13863,721.229,629.751,0,0,0.00120473,0.0001817,0.012773,0.679647,0.0308334,0.680624,0,0
1028,0.0376299,-2.5188,-3.81854,15.2209,722.456,-17.8151,1.56595,721.949,639.851,0,0,0.00120473,0.0001817,0.0131202,0.688079,0.0311075,0.689049,0,0
1029,0.047049,-2.5188,-3.82813,15.2343,732.236,-13.4692,-0.865375,731.474,642.928,0,0,0.00120473,0.0001817,0.0128192,0.691547,0.0335239,0.692731,0,0
1030,0.056468,-2.51879,-3.83772,15.2478,743.69,-8.43364,-3.63981,742.625,644.708,0,0,0.00120473,0.0001817,0.0123986,0.694099,0.0363358,0.695536,0,0
1031,0.0658871,-2.51879,-3.84731,15.2612,755.143,-3.39805,-6.41425,753.776,646.489,0,0,0.00120473,0.0001817,0.0119779,0.696651,0.0391477,0.698341,0,0
1032,0.0753061,-2.51879,-3.85689,15.2746,766.596,1.63749,-9.18866,764.926,648.269,0,0,0.00120473,0.0001817,0.0115573,0.699203,0.0419595,0.701146,0,0
1033,0.0847251,-2.51878,-3.86648,15.2881,778.049,6.67307,-11.9631,776.077,650.049,0,0,0.00120473,0.0001817,0.0111367,0.701755,0.0447714,0.703952,0,0
1034,0.0941442,-2.51878,-3.87607,15.3015,789.503,11.7087,-14.7376,787.227,651.829,0,0,0.00120473,0.0001817,0.0107161,0.704307,0.0475833,0.706757,0,0
1035,0.103563,-2.51878,-3.88566,15.315,800.956,16.7443,-17.512,798.378,653.61,0,0,0.00120473,0.0001817,0.0102954,0.70686,0.0503952,0.709562,0,0
1036,0.112982,-2.51877,-3.89524,15.3284,812.41,21.7799,-20.2864,809.529,655.39,0,0,0.00120473,0.0001817,0.00987482,0.709412,0.0532071,0.712368,0,0
1037,0.122401,-2.51877,-3.90483,15.3418,823.863,26.8155,-23.0609,820.68,657.17,0,0,0.00120473,0.0001817,0.00945419,0.711964,0.056019,0.715173,0,0
1038,0.13182,-2.51876,-3.91442,15.3553,835.317,31.8511,-25.8353,831.831,658.95,0,0,0.00120473,0.0001817,0.00903357,0.714516,0.0588309,0.717978,0,0
1039,0.141239,-2.51876,-3.924,15.3687,846.77,36.8867,-28.6098,842.982,660.731,0,0,0.00120473,0.0001817,0.00861293,0.717068,0.0616428,0.720784,0,0
1040,0.150658,-2.51876,-3.93359,15.3822,858.224,41.9223,-31.3842,854.133,662.511,0,0,0.00120473,0.0001817,0.0081923,0.71962,0.0644547,0.723589,0,0
1041,0.160077,-2.51875,-3.94318,15.3956,869.677,46.9579,-34.1586,865.284,664.291,0,0,0.00120473,0.0001817,0.00777168,0.722172,0.0672666,0.726394,0,0
1042,0.175977,-2.51875,-3.95131,15.4135,887.216,53.9364,-38.1396,882.337,663.618,0,0,0.00120473,0.0001817,0.00773844,0.724605,0.0714895,0.729223,0,0
1043,0.191876,-2.51875,-3.95944,15.4313,904.755,60.9149,-42.1205,899.39,662.946,0,0,0.00120473,0.0001817,0.00770521,0.727038,0.0757122,0.732052,0,0
1044,0.207775,-2.51876,-3.96757,15.4492,922.294,67.8935,-46.1014,916.444,662.273,0,0,0.00120473,0.0001817,0.00767197,0.72947,0.0799351,0.734881,0,0
1045,0.223674,-2.51876,-3.9757,15.467,939.833,74.872,-50.0823,933.497,661.601,0,0,0.00120473,0.0001817,0.00763873,0.731903,0.0841579,0.73771,0,0
1046,0.239573,-2.51876,-3.98383,15.4849,957.372,81.8506,-54.0633,950.55,660.928,0,0,0.00120473,0.0001817,0.00760549,0.734336,0.0883807,0.740539,0,0
1047,0.255472,-2.51876,-3.99196,15.5027,974.91,88.8291,-58.0442,967.604,660.256,0,0,0.00120473,0.0001817,0.00757226,0.736769,0.0926035,0.743368,0,0
1048,0.271371,-2.51876,-4.00009,15.5206,992.449,95.8076,-62.0251,984.657,659.583,0,0,0.00120473,0.0001817,0.00753904,0.739201,0.0968263,0.746196,0,0
1049,0.28727,-2.51876,-4.00823,15.5385,1009.99,102.786,-66.006,1001.71,658.91,0,0,0.00120473,0.0001817,0.00750578,0.741634,0.101049,0.749025,0,0
1050,0.303169,-2.51876,-4.01636,15.5563,1025.43,109.209,-69.1643,1016.73,659.588,0,0,0.00120473,0.0001817,0.0075673,0.744337,0.10517,0.752118,0,0
1051,0.319068,-2.51876,-4.02449,15.5742,1037.59,113.742,-71.4819,1028.63,660.334,0,0,0.00120473,0.0001817,0.00768234,0.745431,0.108846,0.753579,0,0
1052,0.334968,-2.51876,-4.03262,15.592,1050.57,119.67,-75.0971,1040.83,655.363,0,0,0.00120473,0.0001817,0.00709352,0.74929,0.113519,0.758004,0,0
1053,0.350867,-2.51876,-4.04075,15.6099,1067.69,130.495,-83.3255,1055.5,635.788,0,0,0.00120473,0.0001817,0.00414919,0.761804,0.121747,0.771806,0,0
1054,0.366766,-2.51876,-4.04888,15.6277,1084.82,141.298,-91.3215,1070.2,615.935,0,0,0.00120473,0.0001817,0.00125109,0.774308,0.130014,0.785614,0,0
1055,0.382665,-2.51876,-4.05701,15.6456,1101.94,150.96,-98.8045,1085.1,595.859,0,0,0.00120473,0.0001817,-0.00203765,0.782625,0.13892,0.79568,0,0
1056,0.398564,-2.51876,-4.06514,15.6635,1115.03,156.993,-104.187,1096.41,576.767,0,0,0.00120473,0.0001817,-0.00491733,0.774468,0.14,0.787653,0,0
1057,0.414463,-2.51876,-4.07327,15.6813,1134.83,161.275,-107.901,1115.11,561.178,0,0,0.00120473,0.0001817,-0.00646735,0.768121,0.144183,0.782325,0,0
1058,0.430362,-2.51876,-4.0814,15.6992,1154.62,165.556,-111.615,1133.8,545.589,0,0,0.00120473,0.0001817,-0.00801743,0.761773,0.148366,0.776997,0,0
1059,0.446261,-2.51876,-4.08953,15.717,1174.41,169.837,-115.329,1152.49,529.999,0,0,0.00120473,0.0001817,-0.0095675,0.755426,0.152549,0.771669,0,0
1060,0.46216,-2.51876,-4.09766,15.7349,1194.2,174.119,-119.042,1171.18,514.41,0,0,0.00120473,0.0001817,-0.0111175,0.749079,0.156731,0.766341,0,0
1061,0.47806,-2.51876,-4.10579,15.7527,1213.99,178.4,-122.756,1189.88,498.82,0,0,0.00120473,0.0001817,-0.0126676,0.742731,0.160914,0.761013,0,0
1062,0.479505,-2.51877,-4.10063,15.7581,1204.84,180.096,-122.252,1180.25,499.198,0,0,0.00120473,0.0001817,-0.0135062,0.743483,0.160411,0.761563,0,0
1063,0.48095,-2.51877,-4.09547,15.7635,1195.7,181.793,-121.749,1170.63,499.575,0,0,0.00120473,0.0001817,-0.0143448,0.744235,0.159907,0.762112,0,0
1064,0.482395,-2.51878,-4.0903,15.7688,1186.55,183.489,-121.245,1161.01,499.952,0,0,0.00120473,0.0001817,-0.0151835,0.744986,0.159403,0.762662,0,0
1065,0.48384,-2.51878,-4.08514,15.7742,1177.42,185.181,-120.738,1151.4,500.337,0,0,0.00120473,0.0001817,-0.0160192,0.745749,0.158912,0.763226,0,0
1066,0.485285,-2.51879,-4.07997,15.7796,1178.11,185.115,-118.414,1152.47,504.948,0,0,0.00120473,0.0001817,-0.0153796,0.751664,0.164823,0.770713,0,0
1067,0.48673,-2.51879,-4.07481,15.7849,1178.81,185.049,-116.089,1153.55,509.558,0,0,0.00120473,0.0001817,-0.01474,0.75758,0.170734,0.778201,0,0
1068,0.488175,-2.5188,-4.06965,15.7903,1179.51,184.982,-113.765,1154.62,514.169,0,0,0.00120473,0.0001817,-0.0141003,0.763496,0.176644,0.785689,0,0
1069,0.48962,-2.5188,-4.06448,15.7956,1180.21,184.916,-111.441,1155.69,518.78,0,0,0.00120473,0.0001817,-0.0134607,0.769412,0.182555,0.793176,0,0
1070,0.491065,-2.51881,-4.05932,15.801,1180.9,184.849,-109.117,1156.76,523.39,0,0,0.00120473,0.0001817,-0.012821,0.775328,0.188466,0.800664,0,0
1071,0.492511,-2.51881,-4.05415,15.8064,1181.6,184.783,-106.792,1157.84,528.001,0,0,0.00120473,0.0001817,-0.0121814,0.781243,0.194376,0.808151,0,0
1072,0.493956,-2.51882,-4.04899,15.8117,1180.68,183.985,-103.971,1157.34,533.067,0,0,0.00120473,0.0001817,-0.0111858,0.783162,0.196904,0.810764,0,0
1073,0.495401,-2.51882,-4.04383,15.8171,1178.51,182.619,-100.764,1155.62,538.487,0,0,0.00120473,0.0001817,-0.00991459,0.781985,0.196813,0.809603,0,0
1074,0.496846,-2.51883,-4.03866,15.8225,1176.33,181.254,-97.5578,1153.9,543.906,0,0,0.00120473,0.0001817,-0.00864349,0.780808,0.196721,0.808442,0,0
1075,0.498291,-2.51883,-4.0335,15.8278,1174.16,179.889,-94.3511,1152.19,549.326,0,0,0.00120473,0.0001817,-0.00737227,0.779631,0.19663,0.80728,0,0
1076,0.499736,-2.51884,-4.02833,15.8332,1171.99,178.524,-91.1444,1150.47,554.745,0,0,0.00120473,0.0001817,-0.00610104,0.778454,0.196538,0.806119,0,0
1077,0.501181,-2.51884,-4.02317,15.8385,1169.82,177.159,-87.938,1148.76,560.164,0,0,0.00120473,0.0001817,-0.00482994,0.777277,0.196446,0.804957,0,0
1078,0.502626,-2.51884,-4.01801,15.8439,1167.64,175.793,-84.7313,1147.04,565.584,0,0,0.00120473,0.0001817,-0.00355869,0.776101,0.196355,0.803796,0,0
1079,0.504071,-2.51885,-4.01284,15.8493,1165.47,174.428,-81.5246,1145.32,571.004,0,0,0.00120473,0.0001817,-0.00228747,0.774924,0.196263,0.802634,0,0
1080,0.505516,-2.51885,-4.00768,15.8546,1163.3,173.063,-78.3182,1143.61,576.423,0,0,0.00120473,0.0001817,-0.00101637,0.773747,0.196172,0.801473,0,0
1081,0.506961,-2.51886,-4.00251,15.86,1161.13,171.697,-75.1115,1141.89,581.842,0,0,0.00120473,0.0001817,0.000254858,0.77257,0.19608,0.800311,0,0
1082,0.510168,-2.51887,-3.98883,15.874,1154.9,167.88,-66.5577,1136.91,596.608,0,0,0.00120473,0.0001817,0.00368637,0.769438,0.195506,0.797138,0,0
1083,0.513374,-2.51888,-3.97515,15.8881,1148.68,164.062,-58.0036,1131.94,611.374,0,0,0.00120473,0.0001817,0.00711796,0.766307,0.194931,0.793964,0,0
1084,0.516581,-2.5189,-3.96147,15.9021,1142.45,160.244,-49.4498,1126.96,626.139,0,0,0.00120473,0.0001817,0.0105495,0.763175,0.194357,0.79079,0,0
1085,0.519787,-2.51891,-3.94779,15.9162,1136.23,156.426,-40.8959,1121.99,640.904,0,0,0.00120473,0.0001817,0.013981,0.760043,0.193782,0.787617,0,0
1086,0.522994,-2.51892,-3.9341,15.9303,1130,152.608,-32.3419,1117.01,655.67,0,0,0.00120473,0.0001817,0.0174126,0.756912,0.193208,0.784443,0,0
1087,0.5262,-2.51893,-3.92042,15.9443,1123.78,148.79,-23.7881,1112.04,670.436,0,0,0.00120473,0.0001817,0.0208441,0.75378,0.192633,0.781269,0,0
1088,0.529407,-2.51895,-3.90674,15.9584,1117.8,145.526,-15.8793,1107.07,682.66,0,0,0.00120473,0.0001817,0.0240722,0.752,0.190538,0.778956,0,0
1089,0.532613,-2.51896,-3.89306,15.9724,1112.71,144.211,-10.2389,1102.14,685.951,0,0,0.00120473,0.0001817,0.0265852,0.754971,0.183091,0.779669,0,0
1090,0.53582,-2.51897,-3.87937,15.9865,1107.63,142.896,-4.59866,1097.21,689.242,0,0,0.00120473,0.0001817,0.029098,0.757942,0.175644,0.780382,0,0
1091,0.539026,-2.51898,-3.86569,16.0005,1102.47,141.532,1.01799,1092.21,692.436,0,0,0.00120473,0.0001817,0.0315718,0.760753,0.168483,0.781028,0,0
1092,0.542233,-2.519,-3.85201,16.0146,1095.67,138.987,6.06898,1085.6,693.308,0,0,0.00120473,0.0001817,0.0331116,0.75975,0.168124,0.780093,0,0
1093,0.545439,-2.51901,-3.83833,16.0286,1088.88,136.442,11.12,1078.99,694.181,0,0,0.00120473,0.0001817,0.0346514,0.758747,0.167765,0.779158,0,0
1094,0.548646,-2.51902,-3.82465,16.0427,1082.09,133.898,16.1711,1072.38,695.054,0,0,0.00120473,0.0001817,0.0361911,0.757743,0.167406,0.778224,0,0
1095,0.551852,-2.51903,-3.81096,16.0567,1075.29,131.353,21.2221,1065.77,695.927,0,0,0.00120473,0.0001817,0.0377309,0.75674,0.167047,0.777289,0,0
1096,0.555059,-2.51905,-3.79728,16.0708,1075.13,128.13,28.0337,1065.41,697.642,0,0,0.00120473,0.0001817,0.0393374,0.75595,0.170309,0.777416,0,0
1097,0.558265,-2.51906,-3.7836,16.0848,1075.31,124.872,34.9375,1065.37,699.401,0,0,0.00120473,0.0001817,0.0409474,0.75517,0.17376,0.777599,0,0
1098,0.561472,-2.51907,-3.76992,16.0989,1075.49,121.614,41.8412,1065.34,701.161,0,0,0.00120473,0.0001817,0.0425574,0.754391,0.17721,0.777782,0,0
1099,0.564678,-2.51908,-3.75623,16.1129,1075.67,118.356,48.7448,1065.3,702.92,0,0,0.00120473,0.0001817,0.0441674,0.753611,0.180661,0.777965,0,0
1100,0.567884,-2.5191,-3.74255,16.127,1075.85,115.098,55.6486,1065.26,704.68,0,0,0.00120473,0.0001817,0.0457774,0.752832,0.184112,0.778148,0,0
1101,0.571091,-2.51911,-3.72887,16.141,1076.03,111.84,62.5523,1065.22,706.439,0,0,0.00120473,0.0001817,0.0473873,0.752052,0.187562,0.77833,0,0
1102,0.562173,-2.51911,-3.71642,16.1564,1062.43,105.755,66.6038,1051.81,706.114,0,0,0.00120473,0.0001817,0.048533,0.750744,0.185048,0.776758,0,0
1103,0.553256,-2.51912,-3.70396,16.1717,1048.83,99.6699,70.6554,1038.39,705.789,0,0,0.00120473,0.0001817,0.0496786,0.749436,0.182533,0.775185,0,0
1104,0.544338,-2.51913,-3.69151,16.187,1035.22,93.5849,74.7069,1024.98,705.464,0,0,0.00120473,0.0001817,0.0508243,0.748128,0.180018,0.773613,0,0
1105,0.535421,-2.51913,-3.67906,16.2023,1021.62,87.4999,78.7585,1011.56,705.138,0,0,0.00120473,0.0001817,0.0519699,0.746819,0.177504,0.77204,0,0
1106,0.526503,-2.51914,-3.6666,16.2176,1008.02,81.4149,82.81,998.149,704.813,0,0,0.00120473,0.0001817,0.0531156,0.745511,0.174989,0.770468,0,0
1107,0.517586,-2.51915,-3.65415,16.2329,994.414,75.3299,86.8616,984.733,704.488,0,0,0.00120473,0.0001817,0.0542612,0.744203,0.172474,0.768895,0,0
1108,0.508668,-2.51915,-3.6417,16.2483,980.812,69.2449,90.9131,971.319,704.163,0,0,0.00120473,0.0001817,0.0554069,0.742895,0.16996,0.767323,0,0
1109,0.499751,-2.51916,-3.62925,16.2636,967.208,63.16,94.9647,957.903,703.838,0,0,0.00120473,0.0001817,0.0565525,0.741586,0.167445,0.76575,0,0
1110,0.490833,-2.51916,-3.61679,16.2789,953.606,57.075,99.0163,944.489,703.513,0,0,0.00120473,0.0001817,0.0576982,0.740278,0.16493,0.764178,0,0
1111,0.481916,-2.51917,-3.60434,16.2942,940.013,51.0282,102.939,931.021,703.551,0,0,0.00120473,0.0001817,0.0588158,0.730968,0.164156,0.755059,0,0
1112,0.472998,-2.51918,-3.59189,16.3095,926.423,44.9899,106.834,917.541,703.67,0,0,0.00120473,0.0001817,0.0599272,0.719893,0.163766,0.744276,0,0
1113,0.464081,-2.51918,-3.57943,16.3248,912.325,40.8699,107.589,903.837,695.179,0,0,0.00120473,0.0001817,0.0618733,0.728199,0.158532,0.751315,0,0
1114,0.455163,-2.51919,-3.56698,16.3402,897.733,36.7119,107.23,889.659,684.187,0,0,0.00120473,0.0001817,0.0642166,0.738897,0.153205,0.760667,0,0
1115,0.446246,-2.51919,-3.55453,16.3555,881.912,31.1549,105.421,874.126,670.986,0,0,0.00120473,0.0001817,0.067266,0.744291,0.150809,0.765493,0,0
1116,0.437328,-2.5192,-3.54207,16.3708,866.091,25.5979,103.613,858.592,657.784,0,0,0.00120473,0.0001817,0.0703154,0.749684,0.148414,0.77032,0,0
1117,0.428411,-2.51921,-3.52962,16.3861,850.269,20.0408,101.804,843.059,644.583,0,0,0.00120473,0.0001817,0.0733648,0.755077,0.146018,0.775146,0,0
1118,0.419493,-2.51921,-3.51717,16.4014,834.449,14.4839,99.9955,827.526,631.381,0,0,0.00120473,0.0001817,0.0764142,0.760471,0.143622,0.779973,0,0
1119,0.410575,-2.51922,-3.50471,16.4168,818.627,8.92682,98.1869,811.992,618.179,0,0,0.00120473,0.0001817,0.0794636,0.765864,0.141226,0.784799,0,0
1120,0.401658,-2.51922,-3.49226,16.4321,802.735,4.11316,95.2754,796.492,606.957,0,0,0.00120473,0.0001817,0.0817375,0.766133,0.137775,0.7843,0,0
1121,0.39274,-2.51923,-3.47981,16.4474,786.812,-0.382812,91.8924,781.005,596.581,0,0,0.00120473,0.0001817,0.0836799,0.764211,0.133874,0.781523,0,0
1122,0.381477,-2.51922,-3.4854,16.46,775.635,-1.88422,88.5475,770.222,597.765,0,0,0.00120473,0.0001817,0.0822113,0.761984,0.127645,0.77803,0,0
1123,0.370213,-2.51921,-3.49099,16.4725,764.457,-3.38567,85.2025,759.438,598.949,0,0,0.00120473,0.0001817,0.0807427,0.759756,0.121415,0.774536,0,0
1124,0.358949,-2.5192,-3.49659,16.4851,753.28,-4.88708,81.8576,748.655,600.134,0,0,0.00120473,0.0001817,0.0792741,0.757529,0.115185,0.771042,0,0
1125,0.347685,-2.51919,-3.50218,16.4977,746.474,-4.68187,79.6597,742.05,597.55,0,0,0.00120473,0.0001817,0.0758049,0.757767,0.106861,0.769972,0,0
1126,0.336421,-2.51918,-3.50777,16.5103,740.761,-3.9649,77.1499,736.572,597.973,0,0,0.00120473,0.0001817,0.0719278,0.756446,0.0991532,0.767339,0,0
1127,0.325158,-2.51917,-3.51336,16.5228,734.929,-3.2753,74.4695,730.999,599.417,0,0,0.00120473,0.0001817,0.0681274,0.754553,0.0917677,0.764135,0,0
1128,0.313894,-2.51916,-3.51896,16.5354,729.096,-2.5857,71.7891,725.425,600.86,0,0,0.00120473,0.0001817,0.064327,0.752659,0.0843822,0.760931,0,0
1129,0.30263,-2.51915,-3.52455,16.548,723.264,-1.89611,69.1088,719.852,602.303,0,0,0.00120473,0.0001817,0.0605266,0.750766,0.0769968,0.757727,0,0
1130,0.291366,-2.51914,-3.53014,16.5606,717.432,-1.2065,66.4284,714.279,603.747,0,0,0.00120473,0.0001817,0.0567262,0.748873,0.0696113,0.754524,0,0
1131,0.280102,-2.51914,-3.53574,16.5731,715.738,-1.027,65.3404,712.689,605.341,0,0,0.00120473,0.0001817,0.0535709,0.744385,0.0664548,0.749532,0,0
1132,0.268839,-2.51913,-3.54133,16.5857,715.8,-1.06411,64.9286,712.79,606.999,0,0,0.00120473,0.0001817,0.0506895,0.738795,0.065094,0.74378,0,0
1133,0.257575,-2.51912,-3.54692,16.5983,715.862,-1.1012,64.5168,712.892,608.658,0,0,0.00120473,0.0001817,0.0478082,0.733205,0.0637333,0.738029,0,0
1134,0.246311,-2.51911,-3.55251,16.6109,715.925,-1.13831,64.105,712.993,610.316,0,0,0.00120473,0.0001817,0.0449268,0.727616,0.0623725,0.732278,0,0
1135,0.235047,-2.5191,-3.55811,16.6234,715.999,-1.12526,63.6357,713.107,611.999,0,0,0.00120473,0.0001817,0.0419734,0.721603,0.0609538,0.726102,0,0
1136,0.223783,-2.51909,-3.5637,16.636,715.657,-2.17924,61.5293,712.838,610.762,0,0,0.00120473,0.0001817,0.0399782,0.717333,0.0590399,0.721642,0,0
1137,0.212519,-2.51908,-3.56929,16.6486,715.905,-3.84495,58.2395,713.171,607.398,0,0,0.00120473,0.0001817,0.0386036,0.713483,0.05684,0.717593,0,0
1138,0.201256,-2.51907,-3.57488,16.6612,716.155,-5.51066,54.9498,713.505,604.033,0,0,0.00120473,0.0001817,0.037229,0.709634,0.0546401,0.713544,0,0
1139,0.189992,-2.51906,-3.58048,16.6737,716.404,-7.17637,51.66,713.839,600.669,0,0,0.00120473,0.0001817,0.0358543,0.705784,0.0524403,0.709496,0,0
1140,0.178728,-2.51905,-3.58607,16.6863,716.653,-8.84208,48.3703,714.172,597.304,0,0,0.00120473,0.0001817,0.0344797,0.701934,0.0502404,0.705447,0,0
1141,0.167464,-2.51904,-3.59166,16.6989,716.902,-10.5078,45.0805,714.506,593.94,0,0,0.00120473,0.0001817,0.0331051,0.698084,0.0480405,0.701398,0,0
1142,0.1679,-2.51904,-3.59072,16.6999,716.879,-10.4008,45.3529,714.475,593.724,0,0,0.00120473,0.0001817,0.0331154,0.69826,0.0481073,0.701581,0,0
1143,0.168336,-2.51904,-3.58977,16.701,716.856,-10.2938,45.6253,714.443,593.508,0,0,0.00120473,0.0001817,0.0331258,0.698435,0.0481741,0.701763,0,0
1144,0.168772,-2.51904,-3.58883,16.702,716.832,-10.1867,45.8978,714.411,593.292,0,0,0.00120473,0.0001817,0.0331361,0.698611,0.0482409,0.701946,0,0
1145,0.169208,-2.51904,-3.58789,16.7031,716.809,-10.0797,46.1702,714.38,593.076,0,0,0.00120473,0.0001817,0.0331465,0.698786,0.0483077,0.702129,0,0
1146,0.169644,-2.51905,-3.58694,16.7041,716.786,-9.97272,46.4426,714.348,592.86,0,0,0.00120473,0.0001817,0.0331568,0.698962,0.0483745,0.702311,0,0
1147,0.17008,-2.51905,-3.586,16.7051,716.762,-9.8657,46.715,714.316,592.644,0,0,0.00120473,0.0001817,0.0331672,0.699138,0.0484413,0.702494,0,0
1148,0.170516,-2.51905,-3.58505,16.7062,716.739,-9.75869,46.9874,714.285,592.428,0,0,0.00120473,0.0001817,0.0331775,0.699313,0.0485081,0.702676,0,0
1149,0.170952,-2.51905,-3.58411,16.7072,716.716,-9.65167,47.2598,714.253,592.213,0,0,0.00120473,0.0001817,0.0331879,0.699489,0.0485748,0.702859,0,0
1150,0.171388,-2.51905,-3.58316,16.7083,716.692,-9.54466,47.5322,714.221,591.997,0,0,0.00120473,0.0001817,0.0331982,0.699665,0.0486416,0.703041,0,0
1151,0.171824,-2.51905,-3.58222,16.7093,716.669,-9.43763,47.8046,714.19,591.781,0,0,0.00120473,0.0001817,0.0332086,0.69984,0.0487084,0.703224,0,0
1152,0.17226,-2.51905,-3.58127,16.7103,716.646,-9.33061,48.077,714.158,591.565,0,0,0.00120473,0.0001817,0.0332189,0.700016,0.0487752,0.703407,0,0
1153,0.172697,-2.51905,-3.58033,16.7114,716.622,-9.2236,48.3495,714.126,591.349,0,0,0.00120473,0.0001817,0.0332293,0.700191,0.048842,0.703589,0,0
1154,0.173133,-2.51905,-3.57939,16.7124,716.599,-9.11658,48.6219,714.095,591.133,0,0,0.00120473,0.0001817,0.0332397,0.700367,0.0489088,0.703772,0,0
1155,0.173569,-2.51905,-3.57844,16.7135,716.576,-9.00957,48.8943,714.063,590.917,0,0,0.00120473,0.0001817,0.03325,0.700543,0.0489756,0.703954,0,0
1156,0.174005,-2.51905,-3.5775,16.7145,716.552,-8.90255,49.1667,714.031,590.701,0,0,0.00120473,0.0001817,0.0332604,0.700718,0.0490424,0.704137,0,0
1157,0.174441,-2.51906,-3.57655,16.7155,716.529,-8.79554,49.4391,714,590.485,0,0,0.00120473,0.0001817,0.0332707,0.700894,0.0491092,0.70432,0,0
1158,0.174877,-2.51906,-3.57561,16.7166,716.506,-8.68852,49.7115,713.968,590.269,0,0,0.00120473,0.0001817,0.0332811,0.70107,0.049176,0.704502,0,0
1159,0.175313,-2.51906,-3.57466,16.7176,716.482,-8.58151,49.9839,713.936,590.053,0,0,0.00120473,0.0001817,0.0332914,0.701245,0.0492428,0.704685,0,0
1160,0.175749,-2.51906,-3.57372,16.7187,716.459,-8.47449,50.2563,713.905,589.837,0,0,0.00120473,0.0001817,0.0333018,0.701421,0.0493095,0.704867,0,0
1161,0.176185,-2.51906,-3.57277,16.7197,716.436,-8.36748,50.5287,713.873,589.621,0,0,0.00120473,0.0001817,0.0333121,0.701596,0.0493763,0.70505,0,0
1162,0.191808,-2.51907,-3.56701,16.7364,716.127,-6.17372,54.6938,713.461,595.238,0,0,0.00120473,0.0001817,0.0353364,0.706863,0.0524781,0.710595,0,0
1163,0.207432,-2.51908,-3.56125,16.753,715.82,-3.97997,58.859,713.05,600.854,0,0,0.00120473,0.0001817,0.0373607,0.712131,0.0555799,0.71614,0,0
1164,0.223056,-2.51909,-3.55549,16.7697,715.512,-1.78621,63.0242,712.639,606.471,0,0,0.00120473,0.0001817,0.039385,0.717398,0.0586816,0.721685,0,0
1165,0.238679,-2.51911,-3.54973,16.7863,715.097,-1.49358,63.8015,712.179,606.296,0,0,0.00120473,0.0001817,0.0431164,0.724608,0.060731,0.729124,0,0
1166,0.254303,-2.51912,-3.54397,16.803,715.274,-1.34178,64.3801,712.307,605.559,0,0,0.00120473,0.0001817,0.0470699,0.732124,0.0628371,0.736876,0,0
1167,0.269926,-2.51913,-3.53821,16.8196,715.453,-1.18998,64.9589,712.435,604.822,0,0,0.00120473,0.0001817,0.0510235,0.739641,0.0649434,0.744628,0,0
1168,0.28555,-2.51914,-3.53245,16.8363,715.632,-1.03819,65.5376,712.563,604.085,0,0,0.00120473,0.0001817,0.0549771,0.747157,0.0670495,0.752379,0,0
1169,0.301174,-2.51915,-3.52669,16.8529,722.617,-1.7256,68.736,719.244,603.597,0,0,0.00120473,0.0001817,0.0599919,0.750405,0.0761131,0.757189,0,0
1170,0.316797,-2.51916,-3.52093,16.8696,730.855,-2.56749,72.4166,727.131,603.154,0,0,0.00120473,0.0001817,0.0652021,0.752867,0.0864575,0.761457,0,0
1171,0.332421,-2.51918,-3.51517,16.8862,739.094,-3.40939,76.0973,735.018,602.71,0,0,0.00120473,0.0001817,0.0704124,0.755329,0.0968019,0.765725,0,0
1172,0.348045,-2.51919,-3.50941,16.9029,747.011,-4.3245,79.3215,742.649,604.998,0,0,0.00120473,0.0001817,0.0758277,0.756258,0.108009,0.768467,0,0
1173,0.363668,-2.5192,-3.50365,16.9195,761.905,-2.41545,83.6685,757.045,605.94,0,0,0.00120473,0.0001817,0.0781595,0.758551,0.117221,0.772512,0,0
1174,0.379292,-2.51921,-3.49789,16.9362,778.245,0.0583822,88.395,772.824,605.636,0,0,0.00120473,0.0001817,0.0798292,0.761659,0.12574,0.777359,0,0
1175,0.394915,-2.51922,-3.49213,16.9528,794.586,2.53217,93.1216,788.605,605.332,0,0,0.00120473,0.0001817,0.081499,0.764767,0.134259,0.782207,0,0
1176,0.410539,-2.51923,-3.48637,16.9695,810.928,5.00601,97.8483,804.385,605.027,0,0,0.00120473,0.0001817,0.0831687,0.767876,0.142778,0.787054,0,0
1177,0.426163,-2.51924,-3.48061,16.9861,827.268,7.4798,102.575,820.164,604.723,0,0,0.00120473,0.0001817,0.0848384,0.770984,0.151297,0.791901,0,0
1178,0.441786,-2.51926,-3.47485,17.0028,843.608,9.95363,107.301,835.943,604.419,0,0,0.00120473,0.0001817,0.0865081,0.774092,0.159816,0.796748,0,0
1179,0.45741,-2.51927,-3.46908,17.0194,861.74,11.7367,113.267,853.264,603.987,0,0,0.00120473,0.0001817,0.0880251,0.775949,0.168323,0.80044,0,0
1180,0.473034,-2.51928,-3.46332,17.0361,884.938,11.9452,122.178,874.992,604.241,0,0,0.00120473,0.0001817,0.088696,0.771526,0.176236,0.798019,0,0
1181,0.488657,-2.51929,-3.45756,17.0527,908.135,12.1536,131.089,896.72,604.494,0,0,0.00120473,0.0001817,0.0893669,0.767103,0.18415,0.795598,0,0
1182,0.472812,-2.51929,-3.44449,17.0733,885.516,3.94614,128.637,874.38,588.497,0,0,0.00120473,0.0001817,0.0923755,0.771612,0.178519,0.798961,0,0
1183,0.456966,-2.5193,-3.43141,17.0938,862.926,-4.10766,125.962,852.087,572.953,0,0,0.00120473,0.0001817,0.0952016,0.774908,0.172644,0.801066,0,0
1184,0.44112,-2.5193,-3.41834,17.1144,840.5,-11.296,122.034,830.057,559.958,0,0,0.00120473,0.0001817,0.0969999,0.77138,0.1654,0.796099,0,0
1185,0.425275,-2.5193,-3.40526,17.1349,818.073,-18.4844,118.106,808.026,546.962,0,0,0.00120473,0.0001817,0.0987984,0.767851,0.158156,0.791131,0,0
1186,0.409429,-2.51931,-3.39218,17.1555,798.887,-23.5952,114.507,789.194,530.644,0,0,0.00120473,0.0001817,0.0986756,0.766774,0.148797,0.788503,0,0
1187,0.393584,-2.51931,-3.37911,17.176,789.251,-23.5301,111.61,779.785,511.576,0,0,0.00120473,0.0001817,0.0936244,0.7686,0.135784,0.788563,0,0
1188,0.377738,-2.51932,-3.36603,17.1965,779.936,-23.9381,108.553,770.691,497.242,0,0,0.00120473,0.0001817,0.0889083,0.767562,0.124415,0.785832,0,0
1189,0.361893,-2.51932,-3.35296,17.2171,770.621,-24.3461,105.496,761.596,482.908,0,0,0.00120473,0.0001817,0.0841924,0.766524,0.113046,0.783102,0,0
1190,0.346047,-2.51932,-3.33988,17.2376,761.306,-24.7541,102.439,752.502,468.573,0,0,0.00120473,0.0001817,0.0794764,0.765486,0.101677,0.780371,0,0
1191,0.330201,-2.51933,-3.3268,17.2582,751.991,-25.1622,99.3825,743.408,454.239,0,0,0.00120473,0.0001817,0.0747604,0.764448,0.0903075,0.777641,0,0
1192,0.314356,-2.51933,-3.31373,17.2787,738.969,-23.4686,98.2289,730.36,449.029,0,0,0.00120473,0.0001817,0.0695328,0.767559,0.0793039,0.77863,0,0
1193,0.29851,-2.51933,-3.30065,17.2993,724.236,-20.8047,97.9539,715.487,448.031,0,0,0.00120473,0.0001817,0.064069,0.772585,0.0684691,0.781335,0,0
1194,0.282665,-2.51934,-3.28758,17.3198,709.503,-18.1409,97.6791,700.614,447.034,0,0,0.00120473,0.0001817,0.0586053,0.777611,0.0576344,0.784041,0,0
1195,0.266819,-2.51934,-3.2745,17.3404,694.77,-15.477,97.4042,685.74,446.036,0,0,0.00120473,0.0001817,0.0531415,0.782637,0.0467996,0.786746,0,0
1196,0.250973,-2.51934,-3.26142,17.3609,690.691,-15.5308,102.647,680.673,444.519,0,0,0.00120473,0.0001817,0.0484559,0.782861,0.0423991,0.786101,0,0
1197,0.235128,-2.51935,-3.24835,17.3814,690.65,-16.6147,109.981,679.32,442.805,0,0,0.00120473,0.0001817,0.0440651,0.781263,0.0404372,0.784186,0,0
1198,0.219282,-2.51935,-3.23527,17.402,690.608,-17.6985,117.315,677.968,441.092,0,0,0.00120473,0.0001817,0.0396743,0.779665,0.0384754,0.78227,0,0
1199,0.203437,-2.51935,-3.2222,17.4225,690.567,-18.7824,124.649,676.616,439.378,0,0,0.00120473,0.0001817,0.0352835,0.778068,0.0365135,0.780354,0,0
1200,0.187591,-2.51936,-3.20912,17.4431,690.525,-19.8663,131.984,675.264,437.664,0,0,0.00120473,0.0001817,0.0308927,0.77647,0.0345517,0.778439,0,0
1201,0.171746,-2.51936,-3.19604,17.4636,700.396,-15.2682,143.769,682.365,451.459,0,0,0.00120473,0.0001817,0.0261212,0.779438,0.0331195,0.781394,0,0
1202,0.153315,-2.51935,-3.1962,17.4821,706.532,-11.9149,147.561,687.312,459.946,0,0,0.00120473,0.0001817,0.0211962,0.77516,0.0306815,0.777014,0,0
1203,0.134883,-2.51935,-3.19635,17.5005,714.108,-7.10697,148.73,694.13,465.627,0,0,0.00120473,0.0001817,0.0150585,0.763224,0.0277222,0.764996,0,0
1204,0.116452,-2.51934,-3.1965,17.5189,722.556,-1.41636,148.308,702.082,469.605,0,0,0.00120473,0.0001817,0.00818479,0.746642,0.0244463,0.748343,0,0
1205,0.0980213,-2.51933,-3.19665,17.5373,731.005,4.27428,147.886,710.034,473.583,0,0,0.00120473,0.0001817,0.00131106,0.73006,0.0211706,0.73169,0,0
1206,0.0795903,-2.51932,-3.1968,17.5558,739.454,9.96484,147.464,717.987,477.56,0,0,0.00120473,0.0001817,-0.00556263,0.713477,0.0178949,0.715037,0,0
1207,0.0611592,-2.51931,-3.19695,17.5742,747.904,15.6555,147.041,725.94,481.538,0,0,0.00120473,0.0001817,-0.0124364,0.696895,0.0146191,0.698384,0,0
1208,0.0427281,-2.5193,-3.1971,17.5926,750.42,19.2102,146.465,727.701,489.186,0,0,0.00120473,0.0001817,-0.0182768,0.680042,0.00985402,0.68136,0,0
1209,0.0242971,-2.5193,-3.19725,17.6111,740.635,18.3356,145.57,716.621,504.444,0,0,0.00120473,0.0001817,-0.0219744,0.662627,0.00200036,0.663567,0,0
1210,0.005866,-2.51929,-3.1974,17.6295,739.043,17.2563,147.939,714.312,514.664,0,0,0.00120473,0.0001817,-0.0265391,0.670387,-0.00444537,0.671218,0,0
1211,-0.0125651,-2.51928,-3.19755,17.6479,743.264,17.4937,151.161,718.344,518.723,0,0,0.00120473,0.0001817,-0.0304541,0.686351,-0.00901151,0.687328,0,0
1212,-0.0309961,-2.51927,-3.1977,17.6664,747.326,20.1174,151.932,722.402,518.666,0,0,0.00120473,0.0001817,-0.0322912,0.68609,-0.0121696,0.687312,0,0
1213,-0.0494272,-2.51926,-3.19785,17.6848,751.387,22.741,152.704,726.46,518.608,0,0,0.00120473,0.0001817,-0.0341282,0.68583,-0.0153276,0.687297,0,0
1214,-0.0678583,-2.51925,-3.198,17.7032,755.447,25.3648,153.475,730.516,518.551,0,0,0.00120473,0.0001817,-0.0359652,0.68557,-0.0184856,0.687281,0,0
1215,-0.0862893,-2.51925,-3.19815,17.7217,759.508,27.9885,154.247,734.574,518.494,0,0,0.00120473,0.0001817,-0.0378022,0.685309,-0.0216437,0.687266,0,0
1216,-0.10472,-2.51924,-3.1983,17.7401,763.57,30.6121,155.019,738.632,518.437,0,0,0.00120473,0.0001817,-0.0396392,0.685049,-0.0248017,0.68725,0,0
1217,-0.123151,-2.51923,-3.19845,17.7585,767.631,33.2358,155.79,742.689,518.38,0,0,0.00120473,0.0001817,-0.0414762,0.684788,-0.0279597,0.687235,0,0
1218,-0.141583,-2.51922,-3.1986,17.777,771.692,35.8595,156.562,746.747,518.323,0,0,0.00120473,0.0001817,-0.0433132,0.684528,-0.0311178,0.687219,0,0
1219,-0.160014,-2.51921,-3.19875,17.7954,775.752,38.4832,157.333,750.804,518.266,0,0,0.00120473,0.0001817,-0.0451503,0.684268,-0.0342758,0.687203,0,0
1220,-0.178445,-2.5192,-3.1989,17.8138,779.814,41.1069,158.105,754.861,518.209,0,0,0.00120473,0.0001817,-0.0469873,0.684007,-0.0374338,0.687188,0,0
1221,-0.196876,-2.5192,-3.19905,17.8323,783.875,43.7305,158.877,758.919,518.151,0,0,0.00120473,0.0001817,-0.0488243,0.683747,-0.0405919,0.687172,0,0
1222,-0.210833,-2.51918,-3.20921,17.8495,784.768,44.3649,155.252,760.853,513.589,0,0,0.00120473,0.0001817,-0.0487894,0.683353,-0.0420298,0.686944,0,0
1223,-0.22479,-2.51917,-3.21936,17.8668,785.662,44.9992,151.628,762.789,509.026,0,0,0.00120473,0.0001817,-0.0487544,0.68296,-0.0434677,0.686716,0,0
1224,-0.238747,-2.51915,-3.22952,17.884,785.383,44.5293,147.197,763.466,506.3,0,0,0.00120473,0.0001817,-0.0499049,0.683407,-0.0446434,0.68721,0,0
1225,-0.252704,-2.51914,-3.23968,17.9013,784.68,43.6607,142.474,763.689,504.237,0,0,0.00120473,0.0001817,-0.0514835,0.684159,-0.0457245,0.687965,0,0
1226,-0.266661,-2.51912,-3.24983,17.9186,788.351,41.9633,140.362,767.339,507.248,0,0,0.00120473,0.0001817,-0.0512356,0.675161,-0.0492658,0.679236,0,0
1227,-0.280618,-2.51911,-3.25999,17.9358,794.175,39.8579,139.534,772.675,512.757,0,0,0.00120473,0.0001817,-0.0500884,0.661365,-0.0540182,0.665839,0,0
1228,-0.294575,-2.5191,-3.27015,17.9531,800.827,39.3938,136.952,779.454,515.443,0,0,0.00120473,0.0001817,-0.0507455,0.65393,-0.0598594,0.659237,0,0
1229,-0.308532,-2.51908,-3.2803,17.9703,808.661,41.2775,131.861,788.294,514.092,0,0,0.00120473,0.0001817,-0.0539834,0.655594,-0.0672577,0.662356,0,0
1230,-0.32249,-2.51907,-3.29046,17.9876,816.494,43.1611,126.77,797.133,512.741,0,0,0.00120473,0.0001817,-0.0572212,0.657259,-0.0746559,0.665476,0,0
1231,-0.336447,-2.51905,-3.30062,18.0049,824.328,45.0447,121.679,805.973,511.39,0,0,0.00120473,0.0001817,-0.0604591,0.658924,-0.0820542,0.668595,0,0
1232,-0.350404,-2.51904,-3.31077,18.0221,832.161,46.9283,116.587,814.813,510.039,0,0,0.00120473,0.0001817,-0.0636969,0.660589,-0.0894524,0.671714,0,0
1233,-0.364361,-2.51902,-3.32093,18.0394,839.994,48.812,111.496,823.652,508.688,0,0,0.00120473,0.0001817,-0.0669347,0.662253,-0.0968506,0.674833,0,0
1234,-0.378318,-2.51901,-3.33109,18.0567,847.827,50.6957,106.405,832.492,507.336,0,0,0.00120473,0.0001817,-0.0701726,0.663918,-0.104249,0.677952,0,0
1235,-0.392275,-2.51899,-3.34124,18.0739,855.661,52.5793,101.313,841.331,505.985,0,0,0.00120473,0.0001817,-0.0734104,0.665583,-0.111647,0.681071,0,0
1236,-0.406232,-2.51898,-3.3514,18.0912,863.495,54.4629,96.2218,850.172,504.634,0,0,0.00120473,0.0001817,-0.0766483,0.667247,-0.119045,0.68419,0,0
1237,-0.420189,-2.51897,-3.36156,18.1084,871.328,56.3465,91.1305,859.011,503.283,0,0,0.00120473,0.0001817,-0.0798861,0.668912,-0.126444,0.687309,0,0
1238,-0.434146,-2.51895,-3.37171,18.1257,879.161,58.2302,86.0392,867.851,501.932,0,0,0.00120473,0.0001817,-0.083124,0.670577,-0.133842,0.690428,0,0
1239,-0.448103,-2.51894,-3.38187,18.143,886.995,60.1138,80.9479,876.691,500.581,0,0,0.00120473,0.0001817,-0.0863618,0.672242,-0.14124,0.693547,0,0
1240,-0.462061,-2.51892,-3.39203,18.1602,894.828,61.9974,75.8565,885.531,499.23,0,0,0.00120473,0.0001817,-0.0895997,0.673906,-0.148638,0.696667,0,0
1241,-0.476018,-2.51891,-3.40218,18.1775,908.216,56.2994,72.3151,899.309,494.998,0,0,0.00120473,0.0001817,-0.0907165,0.678735,-0.155263,0.702887,0,0
1242,-0.484641,-2.51889,-3.41743,18.195,913.056,50.0861,68.248,904.433,492.448,0,0,0.00120473,0.0001817,-0.0923385,0.691139,-0.161076,0.71616,0,0
1243,-0.493265,-2.51888,-3.43268,18.2125,918.188,43.994,64.2984,909.859,490.348,0,0,0.00120473,0.0001817,-0.0939388,0.703003,-0.166992,0.728976,0,0
1244,-0.501888,-2.51886,-3.44794,18.23,927.911,38.2121,61.2684,920.021,492.598,0,0,0.00120473,0.0001817,-0.0940469,0.705008,-0.172929,0.732833,0,0
1245,-0.510512,-2.51884,-3.46319,18.2476,937.951,32.04,58.063,930.506,494.449,0,0,0.00120473,0.0001817,-0.093753,0.705969,-0.178459,0.735601,0,0
1246,-0.519135,-2.51883,-3.47844,18.2651,947.991,25.8681,54.8577,940.99,496.301,0,0,0.00120473,0.0001817,-0.0934591,0.706929,-0.183988,0.738369,0,0
1247,-0.527759,-2.51881,-3.49369,18.2826,958.031,19.696,51.6524,951.476,498.153,0,0,0.00120473,0.0001817,-0.0931653,0.70789,-0.189517,0.741137,0,0
1248,-0.536382,-2.5188,-3.50894,18.3001,968.071,13.5239,48.447,961.961,500.005,0,0,0.00120473,0.0001817,-0.0928714,0.708851,-0.195047,0.743905,0,0
1249,-0.545006,-2.51878,-3.52419,18.3176,978.111,7.35184,45.2417,972.446,501.857,0,0,0.00120473,0.0001817,-0.0925775,0.709811,-0.200576,0.746673,0,0
1250,-0.553629,-2.51876,-3.53944,18.3352,988.151,1.17987,42.0364,982.931,503.709,0,0,0.00120473,0.0001817,-0.0922837,0.710772,-0.206105,0.749441,0,0
1251,-0.562253,-2.51875,-3.55469,18.3527,998.191,-4.99224,38.831,993.416,505.561,0,0,0.00120473,0.0001817,-0.0919898,0.711733,-0.211635,0.752209,0,0
1252,-0.570876,-2.51873,-3.56994,18.3702,1008.23,-11.1643,35.6257,1003.9,507.412,0,0,0.00120473,0.0001817,-0.0916959,0.712694,-0.217164,0.754977,0,0
1253,-0.579499,-2.51871,-3.58519,18.3877,1018.27,-17.3362,32.4203,1014.39,509.264,0,0,0.00120473,0.0001817,-0.0914021,0.713654,-0.222693,0.757745,0,0
1254,-0.588123,-2.5187,-3.60044,18.4052,1028.58,-24.6419,29.2889,1025.23,508.557,0,0,0.00120473,0.0001817,-0.0905423,0.710047,-0.227763,0.755735,0,0
1255,-0.596746,-2.51868,-3.61569,18.4228,1039,-32.4086,26.1875,1036.22,506.808,0,0,0.00120473,0.0001817,-0.0894524,0.704583,-0.232646,0.751782,0,0
1256,-0.60537,-2.51867,-3.63094,18.4403,1049.42,-40.1753,23.086,1047.21,505.06,0,0,0.00120473,0.0001817,-0.0883625,0.699118,-0.237529,0.74783,0,0
1257,-0.613993,-2.51865,-3.64619,18.4578,1059.84,-47.9418,19.9847,1058.2,503.311,0,0,0.00120473,0.0001817,-0.0872727,0.693654,-0.242412,0.743877,0,0
1258,-0.622617,-2.51863,-3.66144,18.4753,1074.92,-53.9708,15.3189,1072.9,506.611,0,0,0.00120473,0.0001817,-0.0851411,0.69799,-0.25012,0.749822,0,0
1259,-0.63124,-2.51862,-3.67669,18.4928,1090.87,-59.6778,10.3633,1088.28,510.846,0,0,0.00120473,0.0001817,-0.0828165,0.704142,-0.258351,0.757602,0,0
1260,-0.639864,-2.5186,-3.69194,18.5104,1106.81,-65.3846,5.40779,1103.67,515.081,0,0,0.00120473,0.0001817,-0.080492,0.710294,-0.266582,0.765381,0,0
1261,-0.648487,-2.51859,-3.70719,18.5279,1122.76,-71.0916,0.452166,1119.05,519.316,0,0,0.00120473,0.0001817,-0.0781674,0.716446,-0.274813,0.773161,0,0
1262,-0.645088,-2.51857,-3.72334,18.5444,1121.8,-76.0189,-5.8784,1117.57,522.062,0,0,0.00120473,0.0001817,-0.0737224,0.721034,-0.275335,0.777381,0,0
1263,-0.641689,-2.51856,-3.73949,18.5609,1120.58,-80.9788,-12.0048,1115.83,524.571,0,0,0.00120473,0.0001817,-0.0689373,0.722929,-0.275037,0.778723,0,0
1264,-0.63829,-2.51855,-3.75563,18.5774,1118.99,-85.9864,-17.8308,1113.72,526.73,0,0,0.00120473,0.0001817,-0.063652,0.720866,-0.273535,0.775833,0,0
1265,-0.634891,-2.51854,-3.77178,18.5939,1117.39,-90.9941,-23.6569,1111.62,528.889,0,0,0.00120473,0.0001817,-0.0583667,0.718802,-0.272033,0.772943,0,0
1266,-0.631492,-2.51853,-3.78793,18.6104,1115.79,-96.0018,-29.483,1109.51,531.048,0,0,0.00120473,0.0001817,-0.0530814,0.716739,-0.270531,0.770053,0,0
1267,-0.628092,-2.51852,-3.80408,18.6269,1114.2,-101.009,-35.3091,1107.4,533.207,0,0,0.00120473,0.0001817,-0.0477961,0.714675,-0.269028,0.767163,0,0
1268,-0.624693,-2.51851,-3.82022,18.6434,1112.6,-106.017,-41.1352,1105.3,535.366,0,0,0.00120473,0.0001817,-0.0425108,0.712612,-0.267526,0.764273,0,0
1269,-0.621294,-2.51849,-3.83637,18.6599,1111.01,-111.025,-46.9613,1103.19,537.525,0,0,0.00120473,0.0001817,-0.0372256,0.710548,-0.266024,0.761383,0,0
1270,-0.617895,-2.51848,-3.85252,18.6764,1109.41,-116.032,-52.7874,1101.08,539.684,0,0,0.00120473,0.0001817,-0.0319403,0.708485,-0.264522,0.758493,0,0
1271,-0.614496,-2.51847,-3.86866,18.6929,1107.81,-121.04,-58.6135,1098.98,541.844,0,0,0.00120473,0.0001817,-0.0266551,0.706421,-0.26302,0.755603,0,0
1272,-0.611097,-2.51846,-3.88481,18.7094,1118.42,-122.65,-58.2813,1109.55,552.679,0,0,0.00120473,0.0001817,-0.0248892,0.718004,-0.264159,0.766748,0,0
1273,-0.607698,-2.51845,-3.90096,18.7259,1128.99,-123.753,-57.583,1120.14,563.576,0,0,0.00120473,0.0001817,-0.0234514,0.729277,-0.265151,0.777611,0,0
1274,-0.604298,-2.51844,-3.91711,18.7424,1140.02,-125.452,-58.7554,1131.11,562.44,0,0,0.00120473,0.0001817,-0.0222062,0.727396,-0.26235,0.775141,0,0
1275,-0.600899,-2.51842,-3.93325,18.7589,1148.23,-126.912,-60.0799,1139.27,560.3,0,0,0.00120473,0.0001817,-0.0210768,0.722874,-0.259205,0.770087,0,0
1276,-0.5975,-2.51841,-3.9494,18.7754,1154.41,-127.445,-60.0199,1145.47,556.726,0,0,0.00120473,0.0001817,-0.0195869,0.712521,-0.252861,0.758523,0,0
1277,-0.594101,-2.5184,-3.96555,18.7919,1157.11,-126.402,-57.6035,1148.36,550.711,0,0,0.00120473,0.0001817,-0.0174837,0.692246,-0.241071,0.735878,0,0
1278,-0.590702,-2.51839,-3.9817,18.8084,1159.81,-125.358,-55.1872,1151.25,544.696,0,0,0.00120473,0.0001817,-0.0153804,0.671971,-0.229282,0.713233,0,0
1279,-0.587303,-2.51838,-3.99784,18.8249,1162.51,-124.314,-52.7709,1154.13,538.681,0,0,0.00120473,0.0001817,-0.0132772,0.651697,-0.217493,0.690589,0,0
1280,-0.583903,-2.51837,-4.01399,18.8414,1165.21,-123.27,-50.3545,1157.02,532.667,0,0,0.00120473,0.0001817,-0.0111739,0.631421,-0.205703,0.667944,0,0
1281,-0.580504,-2.51836,-4.03014,18.8579,1167.91,-122.227,-47.9382,1159.91,526.652,0,0,0.00120473,0.0001817,-0.00907069,0.611147,-0.193914,0.645299,0,0
1282,-0.560335,-2.51835,-4.04325,18.882,1142.96,-118.074,-43.4556,1135.39,531.769,0,0,0.00120473,0.0001817,-0.0074659,0.608367,-0.179872,0.638939,0,0
1283,-0.540165,-2.51835,-4.05636,18.906,1118.02,-113.921,-38.973,1110.88,536.886,0,0,0.00120473,0.0001817,-0.00586118,0.605588,-0.16583,0.632579,0,0
1284,-0.519995,-2.51835,-4.06948,18.9301,1093.07,-109.768,-34.4904,1086.36,542.003,0,0,0.00120473,0.0001817,-0.0042564,0.602808,-0.151788,0.626219,0,0
1285,-0.499825,-2.51835,-4.08259,18.9541,1068.12,-105.615,-30.0078,1061.85,547.119,0,0,0.00120473,0.0001817,-0.00265162,0.600028,-0.137745,0.619859,0,0
1286,-0.479656,-2.51835,-4.0957,18.9782,1046.9,-109.623,-32.7821,1039.49,544.783,0,0,0.00120473,0.0001817,-0.000905702,0.633641,-0.130615,0.651222,0,0
1287,-0.459486,-2.51835,-4.10882,19.0022,1026.9,-116.291,-37.9229,1017.83,540.015,0,0,0.00120473,0.0001817,0.000886322,0.67912,-0.125738,0.694887,0,0
1288,-0.439316,-2.51834,-4.12193,19.0263,1006.9,-122.96,-43.0638,996.169,535.247,0,0,0.00120473,0.0001817,0.00267835,0.7246,-0.120861,0.738552,0,0
1289,-0.419146,-2.51834,-4.13504,19.0504,986.9,-129.628,-48.2047,974.509,530.48,0,0,0.00120473,0.0001817,0.00447037,0.770079,-0.115984,0.782217,0,0
1290,-0.398977,-2.51834,-4.14815,19.0744,966.898,-136.297,-53.3453,952.849,525.712,0,0,0.00120473,0.0001817,0.00626233,0.815559,-0.111107,0.825882,0,0
1291,-0.378807,-2.51834,-4.16127,19.0985,947.436,-140.902,-57.6448,932.058,522.27,0,0,0.00120473,0.0001817,0.00764256,0.85475,-0.107249,0.863661,0,0
1292,-0.358637,-2.51834,-4.17438,19.1225,915.466,-137.098,-58.8691,899.457,515.663,0,0,0.00120473,0.0001817,0.00757012,0.861315,-0.0945802,0.867358,0,0
1293,-0.338467,-2.51834,-4.18749,19.1466,945.639,-131.551,-66.6629,929.194,511.246,0,0,0.00120473,0.0001817,0.0085563,0.881798,-0.0822577,0.886571,0,0
1294,-0.318298,-2.51833,-4.20061,19.1707,954.117,-126.682,-70.8189,937.202,503.36,0,0,0.00120473,0.0001817,0.00943755,0.87992,-0.066367,0.883427,0,0
1295,-0.298128,-2.51833,-4.21372,19.1947,962.379,-121.362,-75.4387,944.981,494.661,0,0,0.00120473,0.0001817,0.0101209,0.878407,-0.0511791,0.880717,0,0
1296,-0.277958,-2.51833,-4.22683,19.2188,967.562,-109.612,-86.6891,949.501,474.354,0,0,0.00120473,0.0001817,0.00797528,0.882111,-0.0460347,0.884213,0,0
1297,-0.257789,-2.51833,-4.23994,19.2428,972.745,-97.8621,-97.9392,954.02,454.048,0,0,0.00120473,0.0001817,0.00582969,0.885815,-0.0408903,0.887708,0,0
1298,-0.237619,-2.51833,-4.25306,19.2669,977.928,-86.1121,-109.19,958.54,433.74,0,0,0.00120473,0.0001817,0.00368408,0.889519,-0.0357459,0.891204,0,0
1299,-0.217449,-2.51833,-4.26617,19.2909,983.112,-74.3622,-120.44,963.06,413.433,0,0,0.00120473,0.0001817,0.00153847,0.893223,-0.0306015,0.8947,0,0
1300,-0.197279,-2.51832,-4.27928,19.315,988.294,-62.6122,-131.69,967.58,393.127,0,0,0.00120473,0.0001817,-0.000607123,0.896926,-0.025457,0.898196,0,0
1301,-0.17711,-2.51832,-4.2924,19.3391,993.478,-50.8622,-142.941,972.099,372.82,0,0,0.00120473,0.0001817,-0.00275273,0.90063,-0.0203127,0.901692,0,0
1302,-0.164657,-2.51832,-4.30011,19.3537,996.276,-43.6465,-149.651,974.514,360.829,0,0,0.00120473,0.0001817,-0.00406617,0.902745,-0.0171127,0.90368,0,0
1303,-0.152204,-2.51832,-4.30783,19.3684,999.074,-36.4308,-156.361,976.929,348.838,0,0,0.00120473,0.0001817,-0.0053796,0.90486,-0.0139126,0.905668,0,0
1304,-0.139751,-2.51832,-4.31555,19.383,1001.87,-29.2151,-163.071,979.344,336.847,0,0,0.00120473,0.0001817,-0.00669305,0.906975,-0.0107126,0.907656,0,0
1305,-0.127298,-2.51832,-4.32326,19.3977,1004.67,-21.9994,-169.781,981.758,324.856,0,0,0.00120473,0.0001817,-0.00800647,0.909089,-0.00751262,0.909644,0,0
1306,-0.114845,-2.51832,-4.33098,19.4123,1007.55,-14.7928,-176.053,984.326,313.543,0,0,0.00120473,0.0001817,-0.00935975,0.909572,-0.00431737,0.910018,0,0
1307,-0.102392,-2.51832,-4.3387,19.427,1010.03,-7.72027,-181.608,986.584,303.041,0,0,0.00120473,0.0001817,-0.0107561,0.907327,-0.00108647,0.907689,0,0
1308,-0.0899385,-2.51832,-4.34641,19.4416,992.771,-5.31167,-183.961,968.438,286.181,0,0,0.00120473,0.0001817,-0.0116031,0.890612,0.00377875,0.89088,0,0
1309,-0.0774855,-2.51832,-4.35413,19.4563,976.325,-2.79843,-185.028,951.353,271.628,0,0,0.00120473,0.0001817,-0.0125907,0.86919,0.0085825,0.869421,0,0
1310,-0.0650325,-2.51832,-4.36185,19.4709,988.402,0.676512,-189.045,963.139,264.028,0,0,0.00120473,0.0001817,-0.0138776,0.868459,0.0159778,0.869189,0,0
1311,-0.0525795,-2.51832,-4.36957,19.4856,1028.33,4.54453,-192.058,1003.74,266.974,0,0,0.00120473,0.0001817,-0.0142888,0.869125,0.0246294,0.870712,0,0
1312,-0.0401265,-2.51831,-4.37728,19.5002,1068.86,8.34115,-194.481,1045.07,270.699,0,0,0.00120473,0.0001817,-0.0145099,0.867068,0.0331219,0.869495,0,0
1313,-0.0276735,-2.51831,-4.385,19.5149,1095.79,13.3663,-196.253,1071.93,267.461,0,0,0.00120473,0.0001817,-0.0141326,0.855449,0.0377349,0.858282,0,0
1314,-0.0152205,-2.51831,-4.39272,19.5295,1110.8,19.4687,-197.455,1086.11,258.117,0,0,0.00120473,0.0001817,-0.0132306,0.835444,0.0389457,0.838304,0,0
1315,-0.00276748,-2.51831,-4.40043,19.5442,1125.8,25.5712,-198.656,1100.29,248.773,0,0,0.00120473,0.0001817,-0.0123286,0.81544,0.0401567,0.818327,0,0
1316,0.00968553,-2.51831,-4.40815,19.5588,1141.8,31.1601,-201.206,1114.78,233.06,0,0,0.00120473,0.0001817,-0.0103653,0.809185,0.0423755,0.812147,0,0
1317,0.0221385,-2.51831,-4.41587,19.5735,1163.43,34.8585,-209.179,1132.58,196.214,0,0,0.00120473,0.0001817,-0.00458996,0.852193,0.047885,0.855375,0,0
1318,0.0345915,-2.51831,-4.42358,19.5881,1188.56,38.4277,-218.24,1153.99,161.571,0,0,0.00120473,0.0001817,0.00129528,0.89642,0.0529688,0.899777,0,0
1319,0.0470446,-2.51831,-4.4313,19.6028,1217.21,41.8656,-228.399,1179.03,129.124,0,0,0.00120473,0.0001817,0.0072919,0.941885,0.0576417,0.945371,0,0
1320,0.0594976,-2.51831,-4.43902,19.6174,1249.39,45.1711,-239.658,1207.73,98.8737,0,0,0.00120473,0.0001817,0.0134001,0.988596,0.0619179,0.992169,0,0
1321,0.0719506,-2.51831,-4.44673,19.6321,1285.12,48.3421,-252.027,1240.1,70.814,0,0,0.00120473,0.0001817,0.0196212,1.03657,0.0658113,1.04019,0,0
1322,0.0790936,-2.51831,-4.44613,19.6392,1289.54,51.7014,-252.716,1243.92,70.7958,0,0,0.00120473,0.0001817,0.0197382,1.03776,0.0670113,1.04144,0,0
1323,0.0862365,-2.51832,-4.44552,19.6464,1293.98,55.0608,-253.408,1247.75,70.7915,0,0,0.00120473,0.0001817,0.0198559,1.03896,0.0681982,1.04268,0,0
1324,0.0933795,-2.51832,-4.44492,19.6536,1298.42,58.4205,-254.102,1251.59,70.8045,0,0,0.00120473,0.0001817,0.0199735,1.04015,0.0693719,1.04393,0,0
1325,0.100523,-2.51832,-4.44431,19.6607,1302.88,61.7807,-254.799,1255.45,70.8351,0,0,0.00120473,0.0001817,0.0200908,1.04133,0.0705323,1.04516,0,0
1326,0.107666,-2.51833,-4.44371,19.6679,1307.35,65.1412,-255.498,1259.31,70.8808,0,0,0.00120473,0.0001817,0.0202085,1.04252,0.0716796,1.0464,0,0
1327,0.114809,-2.51833,-4.4431,19.6751,1311.83,68.5019,-256.2,1263.18,70.9424,0,0,0.00120473,0.0001817,0.0203264,1.0437,0.0728138,1.04763,0,0
1328,0.121951,-2.51833,-4.4425,19.6822,1316.33,71.8629,-256.905,1267.07,71.0201,0,0,0.00120473,0.0001817,0.0204445,1.04488,0.0739349,1.04886,0,0
1329,0.129094,-2.51834,-4.44189,19.6894,1320.83,75.2244,-257.612,1270.96,71.1154,0,0,0.00120473,0.0001817,0.0205624,1.04606,0.0750429,1.05008,0,0
1330,0.136237,-2.51834,-4.44129,19.6966,1325.35,78.5862,-258.321,1274.86,71.2256,0,0,0.00120473,0.0001817,0.0206805,1.04723,0.0761378,1.0513,0,0
1331,0.14338,-2.51834,-4.44068,19.7037,1329.88,81.9482,-259.034,1278.78,71.3516,0,0,0.00120473,0.0001817,0.0207989,1.04841,0.0772198,1.05252,0,0
1332,0.150523,-2.51835,-4.44008,19.7109,1334.42,85.3105,-259.749,1282.7,71.4937,0,0,0.00120473,0.0001817,0.0209175,1.04958,0.0782887,1.05374,0,0
1333,0.157666,-2.51835,-4.43947,19.7181,1338.98,88.6732,-260.466,1286.64,71.652,0,0,0.00120473,0.0001817,0.021036,1.05075,0.0793446,1.05495,0,0
1334,0.164809,-2.51836,-4.43886,19.7253,1343.54,92.0363,-261.185,1290.58,71.8274,0,0,0.00120473,0.0001817,0.0211545,1.05191,0.0803876,1.05616,0,0
1335,0.171952,-2.51836,-4.43826,19.7324,0,0,0,0,0,0,0,0,0,0,0,0,0,0,0
1336,0.179095,-2.51836,-4.43765,19.7396,1355.25,95.3186,-260.807,1301.69,69.0684,0,0,0.00120473,0.0001817,0.0243561,1.05525,0.0820645,1.05991,0,0
1337,0.186238,-2.51837,-4.43705,19.7468,1362.26,95.4516,-259.768,1308.71,66.4824,0,0,0.00120473,0.0001817,0.027289,1.05716,0.0827381,1.06218,0,0
1338,0.193381,-2.51837,-4.43644,19.7539,1369.34,95.5512,-258.661,1315.82,64.028,0,0,0.00120473,0.0001817,0.0302834,1.05891,0.0834114,1.06429,0,0
1339,0.200524,-2.51837,-4.43584,19.7611,1376.5,95.6173,-257.488,1323.03,61.7027,0,0,0.00120473,0.0001817,0.03334,1.06049,0.0840843,1.06623,0,0
1340,0.207667,-2.51838,-4.43523,19.7683,1383.73,95.6501,-256.249,1330.33,59.507,0,0,0.00120473,0.0001817,0.0364582,1.06191,0.084757,1.06801,0,0
1341,0.21481,-2.51838,-4.43463,19.7754,1391.03,95.65,-254.942,1337.72,57.4438,0,0,0.00120473,0.0001817,0.0396372,1.06316,0.0854295,1.06961,0,0
1342,0.227902,-2.51839,-4.42787,19.7902,1380.99,99.1477,-245.919,1328.83,68.2859,0,0,0.00120473,0.0001817,0.0395968,1.03703,0.0868763,1.04414,0,0
1343,0.240993,-2.5184,-4.42112,19.8049,1371.38,102.702,-237.309,1320.35,79.0121,0,0,0.00120473,0.0001817,0.0394021,1.01173,0.0884006,1.01949,0,0
1344,0.254084,-2.51842,-4.41436,19.8196,1362.2,106.314,-229.114,1312.28,89.62,0,0,0.00120473,0.0001817,0.0390516,0.987248,0.0900021,0.995659,0,0
1345,0.267176,-2.51843,-4.4076,19.8344,1353.45,109.983,-221.335,1304.63,100.106,0,0,0.00120473,0.0001817,0.0385449,0.963601,0.0916808,0.972656,0,0
1346,0.280267,-2.51844,-4.40085,19.8491,1345.13,113.71,-213.973,1297.37,110.469,0,0,0.00120473,0.0001817,0.0378803,0.940785,0.0934367,0.950483,0,0
1347,0.293358,-2.51845,-4.39409,19.8638,1337.23,117.497,-207.03,1290.53,120.705,0,0,0.00120473,0.0001817,0.0370569,0.918805,0.0952697,0.929141,0,0
1348,0.306449,-2.51846,-4.38734,19.8786,1330.53,121.136,-201.046,1284.75,130.08,0,0,0.00120473,0.0001817,0.0363173,0.899975,0.0972258,0.910937,0,0
1349,0.319541,-2.51847,-4.38058,19.8933,1336.4,121.469,-203.948,1289.93,127.925,0,0,0.00120473,0.0001817,0.0394439,0.918239,0.0999848,0.929659,0,0
1350,0.332632,-2.51848,-4.37382,19.908,1342.5,121.687,-207.101,1295.35,125.95,0,0,0.00120473,0.0001817,0.0427219,0.936671,0.102815,0.948549,0,0
1351,0.345723,-2.51849,-4.36707,19.9227,1348.83,121.791,-210.505,1301.02,124.157,0,0,0.00120473,0.0001817,0.0461509,0.955271,0.105716,0.967606,0,0
1352,0.358815,-2.51851,-4.36031,19.9375,1355.4,121.78,-214.159,1306.93,122.546,0,0,0.00120473,0.0001817,0.0497305,0.974037,0.108689,0.986829,0,0
1353,0.371906,-2.51852,-4.35356,19.9522,1362.19,121.655,-218.062,1313.09,121.117,0,0,0.00120473,0.0001817,0.0534605,0.992969,0.111732,1.00622,0,0
1354,0.384997,-2.51853,-4.3468,19.9669,1369.22,121.416,-222.214,1319.49,119.872,0,0,0.00120473,0.0001817,0.0573402,1.01207,0.114846,1.02577,0,0
1355,0.398088,-2.51854,-4.34004,19.9817,1376.48,121.064,-226.613,1326.15,118.81,0,0,0.00120473,0.0001817,0.0613701,1.03133,0.11803,1.04549,0,0
1356,0.41118,-2.51855,-4.33329,19.9964,1383.98,120.598,-231.259,1333.06,117.932,0,0,0.00120473,0.0001817,0.0655496,1.05076,0.121285,1.06537,0,0
1357,0.424271,-2.51856,-4.32653,20.0111,1391.71,120.018,-236.152,1340.22,117.239,0,0,0.00120473,0.0001817,0.0698785,1.07035,0.124611,1.08542,0,0
1358,0.437362,-2.51857,-4.31978,20.0259,1399.68,119.326,-241.29,1347.63,116.732,0,0,0.00120473,0.0001817,0.0743564,1.0901,0.128007,1.10562,0,0
1359,0.450454,-2.51858,-4.31302,20.0406,1408.71,118.571,-246.343,1356.23,117.087,0,0,0.00120473,0.0001817,0.0789879,1.1092,0.131198,1.12515,0,0
1360,0.463545,-2.5186,-4.30626,20.0553,1416.34,117.821,-244.208,1363.13,125.688,0,0,0.00120473,0.0001817,0.100704,1.27477,0.101496,1.29338,0,0
1361,0.476636,-2.51861,-4.29951,20.0701,1419.06,116.841,-240.988,1365,134.643,0,0,0.00120473,0.0001817,0.12949,1.50751,0.0579417,1.53037,0,0
1362,0.484352,-2.51862,-4.28635,20.0853,1436.96,125.984,-236.243,1389.27,166.29,0,0,0.00120473,0.0001817,0.081067,1.11013,0.122541,1.1263,0,0
1363,0.492068,-2.51863,-4.2732,20.1006,1428.4,133.482,-225.369,1383.4,195.265,0,0,0.00120473,0.0001817,0.0697337,1.05773,0.12378,1.07333,0,0
1364,0.499784,-2.51865,-4.26004,20.1158,1419.25,140.541,-214.575,1376.69,223.557,0,0,0.00120473,0.0001817,0.0608975,1.02454,0.12256,1.0401,0,0
1365,0.507499,-2.51866,-4.24688,20.1311,1410.97,147.231,-204.203,1370.75,251.258,0,0,0.00120473,0.0001817,0.0524605,0.991997,0.122544,1.00768,0,0
1366,0.515215,-2.51868,-4.23372,20.1463,1403.55,153.553,-194.255,1365.59,278.352,0,0,0.00120473,0.0001817,0.0444224,0.960113,0.123742,0.976072,0,0
1367,0.522931,-2.51869,-4.22057,20.1616,1396.98,159.506,-184.727,1361.18,304.823,0,0,0.00120473,0.0001817,0.0367827,0.928889,0.126158,0.945272,0,0
1368,0.530647,-2.5187,-4.20741,20.1768,1391.26,165.092,-175.619,1357.53,330.659,0,0,0.00120473,0.0001817,0.0295396,0.898321,0.129803,0.915283,0,0
1369,0.538362,-2.51872,-4.19425,20.1921,1386.38,170.309,-166.929,1354.6,355.843,0,0,0.00120473,0.0001817,0.022693,0.868415,0.134681,0.886109,0,0
1370,0.546078,-2.51873,-4.1811,20.2073,1383.46,174.759,-159.74,1353.02,375.021,0,0,0.00120473,0.0001817,0.0178583,0.84714,0.139695,0.865825,0,0
1371,0.553794,-2.51875,-4.16794,20.2226,1383.39,178.202,-155.075,1353.08,382.314,0,0,0.00120473,0.0001817,0.0167011,0.843424,0.142752,0.863398,0,0
1372,0.56151,-2.51876,-4.15478,20.2378,1383.4,181.631,-150.435,1353.22,389.574,0,0,0.00120473,0.0001817,0.0155754,0.839667,0.145857,0.860957,0,0
1373,0.569226,-2.51877,-4.14163,20.2531,1383.49,185.045,-145.822,1353.43,396.801,0,0,0.00120473,0.0001817,0.0144817,0.835873,0.149008,0.858506,0,0
1374,0.576941,-2.51879,-4.12847,20.2683,1383.67,188.445,-141.236,1353.73,403.994,0,0,0.00120473,0.0001817,0.0134198,0.832039,0.152206,0.856044,0,0
1375,0.584657,-2.5188,-4.11531,20.2836,1383.93,191.83,-136.675,1354.1,411.154,0,0,0.00120473,0.0001817,0.0123897,0.828167,0.15545,0.85357,0,0
1376,0.592373,-2.51882,-4.10216,20.2989,1384.27,195.2,-132.142,1354.55,418.28,0,0,0.00120473,0.0001817,0.0113917,0.824256,0.158741,0.851086,0,0
1377,0.600089,-2.51883,-4.089,20.3141,1384.69,198.556,-127.634,1355.09,425.373,0,0,0.00120473,0.0001817,0.0104252,0.820306,0.162079,0.84859,0,0
1378,0.607805,-2.51884,-4.07584,20.3294,1385.57,198.048,-121.702,1356.68,435.685,0,0,0.00120473,0.0001817,0.0126837,0.820914,0.16353,0.849684,0,0
1379,0.61552,-2.51886,-4.06269,20.3446,1387.17,194.411,-114.66,1359.53,449.041,0,0,0.00120473,0.0001817,0.017494,0.824728,0.163771,0.853216,0,0
1380,0.623236,-2.51887,-4.04953,20.3599,1389.29,190.676,-107.661,1362.97,463.007,0,0,0.00120473,0.0001817,0.0223229,0.827992,0.164414,0.856219,0,0
1381,0.630952,-2.51889,-4.03637,20.3751,1391.93,186.843,-100.704,1366.99,477.577,0,0,0.00120473,0.0001817,0.0271703,0.830711,0.165455,0.858695,0,0
1382,0.634099,-2.5189,-4.02612,20.3858,1389.13,184.329,-94.1484,1365.39,491.418,0,0,0.00120473,0.0001817,0.0288046,0.821357,0.168983,0.849992,0,0
1383,0.637246,-2.51891,-4.01587,20.3966,1386.23,181.829,-87.599,1363.68,505.128,0,0,0.00120473,0.0001817,0.0304447,0.81219,0.172425,0.841466,0,0
1384,0.640393,-2.51892,-4.00563,20.4073,1383.24,179.343,-81.0554,1361.87,518.706,0,0,0.00120473,0.0001817,0.0320901,0.803209,0.17578,0.833114,0,0
1385,0.64354,-2.51893,-3.99538,20.418,1380.15,176.87,-74.5172,1359.94,532.155,0,0,0.00120473,0.0001817,0.033741,0.794412,0.179048,0.824936,0,0
1386,0.646687,-2.51894,-3.98513,20.4287,1376.97,174.411,-67.985,1357.9,545.472,0,0,0.00120473,0.0001817,0.0353972,0.785802,0.18223,0.816934,0,0
1387,0.649834,-2.51894,-3.97488,20.4394,1373.69,171.966,-61.4588,1355.76,558.657,0,0,0.00120473,0.0001817,0.0370592,0.777379,0.185324,0.809108,0,0
1388,0.652981,-2.51895,-3.96463,20.4502,1370.32,169.534,-54.9384,1353.5,571.71,0,0,0.00120473,0.0001817,0.0387265,0.769143,0.188331,0.801459,0,0
1389,0.656128,-2.51896,-3.95438,20.4609,1366.85,167.117,-48.4236,1351.13,584.631,0,0,0.00120473,0.0001817,0.0403992,0.761093,0.191251,0.793985,0,0
1390,0.659275,-2.51897,-3.94413,20.4716,1363.28,164.713,-41.9147,1348.65,597.42,0,0,0.00120473,0.0001817,0.0420773,0.753229,0.194083,0.786687,0,0
1391,0.662422,-2.51898,-3.93388,20.4823,1359.62,162.324,-35.4116,1346.06,610.075,0,0,0.00120473,0.0001817,0.043761,0.745555,0.196827,0.779567,0,0
1392,0.665569,-2.51899,-3.92363,20.493,1355.86,159.948,-28.9144,1343.35,622.598,0,0,0.00120473,0.0001817,0.0454502,0.738069,0.199483,0.772625,0,0
1393,0.668716,-2.519,-3.91339,20.5038,1352,157.586,-22.4227,1340.54,634.987,0,0,0.00120473,0.0001817,0.0471447,0.730769,0.20205,0.765858,0,0
1394,0.671863,-2.51901,-3.90314,20.5145,1351.74,158.44,-18.8473,1340.42,639.574,0,0,0.00120473,0.0001817,0.0472616,0.732421,0.202525,0.767266,0,0
1395,0.67501,-2.51902,-3.89289,20.5252,1352.52,160.325,-16.0489,1341.05,641.88,0,0,0.00120473,0.0001817,0.0468722,0.736709,0.202513,0.771115,0,0
1396,0.678157,-2.51903,-3.88264,20.5359,1353.2,162.262,-13.1194,1341.59,644.281,0,0,0.00120473,0.0001817,0.0464585,0.740913,0.202657,0.774927,0,0
1397,0.681304,-2.51904,-3.87239,20.5467,1353.79,164.253,-10.0596,1342.03,646.778,0,0,0.00120473,0.0001817,0.0460205,0.745033,0.202957,0.778701,0,0
1398,0.684451,-2.51905,-3.86214,20.5574,1354.28,166.296,-6.87041,1342.38,649.37,0,0,0.00120473,0.0001817,0.0455583,0.749069,0.203411,0.782439,0,0
1399,0.687598,-2.51906,-3.85189,20.5681,1354.67,168.391,-3.55257,1342.64,652.056,0,0,0.00120473,0.0001817,0.0450724,0.753024,0.204019,0.786141,0,0
1400,0.690744,-2.51907,-3.84164,20.5788,1354.97,170.537,-0.106871,1342.8,654.837,0,0,0.00120473,0.0001817,0.0445627,0.756896,0.204779,0.789807,0,0
1401,0.693891,-2.51908,-3.83139,20.5895,1355.18,172.736,3.46598,1342.86,657.71,0,0,0.00120473,0.0001817,0.044029,0.760685,0.205691,0.793434,0,0
1402,0.692529,-2.51909,-3.82062,20.6004,1344.04,174.115,8.31779,1331.68,662.448,0,0,0.00120473,0.0001817,0.0411893,0.749387,0.206858,0.782659,0,0
1403,0.691167,-2.5191,-3.80985,20.6113,1333.17,175.358,12.8232,1320.77,666.977,0,0,0.00120473,0.0001817,0.0384654,0.738857,0.207741,0.772516,0,0
1404,0.689804,-2.5191,-3.79907,20.6221,1323.85,175.183,17.3119,1311.38,671.231,0,0,0.00120473,0.0001817,0.0371788,0.730543,0.208683,0.764672,0,0
1405,0.688442,-2.51911,-3.7883,20.633,1319,170.48,22.8136,1306.43,675.134,0,0,0.00120473,0.0001817,0.0405316,0.727661,0.210707,0.762951,0,0
1406,0.68708,-2.51912,-3.77752,20.6438,1314.13,165.804,28.3061,1301.46,678.967,0,0,0.00120473,0.0001817,0.0438249,0.724845,0.212709,0.761275,0,0
1407,0.685717,-2.51913,-3.76675,20.6547,1309.24,161.156,33.7895,1296.47,682.729,0,0,0.00120473,0.0001817,0.0470582,0.722095,0.214688,0.759643,0,0
1408,0.684355,-2.51914,-3.75597,20.6656,1304.32,156.534,39.2634,1291.46,686.421,0,0,0.00120473,0.0001817,0.0502316,0.719413,0.216644,0.758058,0,0
1409,0.682993,-2.51914,-3.7452,20.6764,1299.39,151.94,44.7283,1286.43,690.042,0,0,0.00120473,0.0001817,0.053345,0.716798,0.218578,0.756518,0,0
1410,0.68163,-2.51915,-3.73443,20.6873,1294.43,147.373,50.1838,1281.38,693.593,0,0,0.00120473,0.0001817,0.056398,0.71425,0.22049,0.755023,0,0
1411,0.680268,-2.51916,-3.72365,20.6981,1289.45,142.834,55.63,1276.31,697.072,0,0,0.00120473,0.0001817,0.0593907,0.711769,0.222378,0.753575,0,0
1412,0.678906,-2.51917,-3.71288,20.709,1284.46,138.322,61.0669,1271.21,700.48,0,0,0.00120473,0.0001817,0.0623229,0.709356,0.224244,0.752172,0,0
1413,0.677543,-2.51918,-3.7021,20.7199,1279.43,133.837,66.4944,1266.1,703.816,0,0,0.00120473,0.0001817,0.0651942,0.707011,0.226087,0.750815,0,0
1414,0.676181,-2.51919,-3.69133,20.7307,1274.39,129.38,71.9126,1260.96,707.081,0,0,0.00120473,0.0001817,0.0680045,0.704733,0.227906,0.749504,0,0
1415,0.674819,-2.51919,-3.68055,20.7416,1269.33,124.951,77.3212,1255.81,710.274,0,0,0.00120473,0.0001817,0.0707538,0.702524,0.229703,0.748239,0,0
1416,0.673456,-2.5192,-3.66978,20.7524,1264.24,120.55,82.7205,1250.63,713.394,0,0,0.00120473,0.0001817,0.0734416,0.700383,0.231477,0.74702,0,0
1417,0.672094,-2.51921,-3.65901,20.7633,1259.14,116.176,88.1104,1245.44,716.443,0,0,0.00120473,0.0001817,0.0760682,0.69831,0.233227,0.745848,0,0
1418,0.670732,-2.51922,-3.64823,20.7742,1254.01,111.83,93.4907,1240.22,719.419,0,0,0.00120473,0.0001817,0.0786332,0.696306,0.234954,0.744723,0,0
1419,0.669369,-2.51923,-3.63746,20.785,1248.85,107.513,98.8615,1234.98,722.323,0,0,0.00120473,0.0001817,0.0811365,0.694371,0.236658,0.743644,0,0
1420,0.668007,-2.51923,-3.62668,20.7959,1243.68,103.223,104.223,1229.72,725.153,0,0,0.00120473,0.0001817,0.0835778,0.692505,0.238339,0.742612,0,0
1421,0.666645,-2.51924,-3.61591,20.8067,1238.48,98.9612,109.575,1224.44,727.911,0,0,0.00120473,0.0001817,0.0859572,0.690709,0.239996,0.741627,0,0
1422,0.652101,-2.51925,-3.59849,20.8294,1197.53,96.9647,116.201,1183.87,712.831,0,0,0.00120473,0.0001817,0.068267,0.678768,0.236418,0.725895,0,0
1423,0.637557,-2.51926,-3.58107,20.8521,1155.53,95.104,122.013,1142.26,698.485,0,0,0.00120473,0.0001817,0.053577,0.67726,0.232486,0.720221,0,0
1424,0.623013,-2.51926,-3.56365,20.8748,1111.26,86.269,130.48,1098.08,701.278,0,0,0.00120473,0.0001817,0.0564618,0.685057,0.227769,0.725739,0,0
1425,0.608469,-2.51927,-3.54622,20.8975,1062.15,76.5662,134.261,1049.15,700.994,0,0,0.00120473,0.0001817,0.0611349,0.691951,0.220545,0.72935,0,0
1426,0.593926,-2.51928,-3.5288,20.9202,1042.64,65.7608,138.318,1029.39,687.917,0,0,0.00120473,0.0001817,0.0667114,0.706592,0.217401,0.742914,0,0
1427,0.579382,-2.51929,-3.51138,20.9429,1027.87,53.9617,142.99,1014.18,672.146,0,0,0.00120473,0.0001817,0.0725147,0.721355,0.21505,0.757059,0,0
1428,0.564838,-2.5193,-3.49396,20.9656,1013.1,42.1626,147.662,998.967,656.374,0,0,0.00120473,0.0001817,0.0783181,0.736119,0.212699,0.771205,0,0
1429,0.550294,-2.5193,-3.47654,20.9883,997.648,30.6018,151.727,983.106,640.191,0,0,0.00120473,0.0001817,0.083882,0.749602,0.210091,0.784048,0,0
1430,0.53575,-2.51931,-3.45912,21.011,977.148,20.7779,151.363,962.515,620.999,0,0,0.00120473,0.0001817,0.0877002,0.753747,0.205609,0.787394,0,0
1431,0.521207,-2.51932,-3.4417,21.0337,956.647,10.9541,150.999,941.924,601.807,0,0,0.00120473,0.0001817,0.0915184,0.757892,0.201126,0.79074,0,0
1432,0.506663,-2.51933,-3.42428,21.0564,936.147,1.13027,150.635,921.333,582.615,0,0,0.00120473,0.0001817,0.0953367,0.762037,0.196643,0.794086,0,0
1433,0.492119,-2.51933,-3.40685,21.0791,915.647,-8.6936,150.271,900.742,563.423,0,0,0.00120473,0.0001817,0.0991549,0.766182,0.192161,0.797432,0,0
1434,0.477575,-2.51934,-3.38943,21.1018,895.146,-18.5174,149.907,880.151,544.231,0,0,0.00120473,0.0001817,0.102973,0.770327,0.187678,0.800778,0,0
1435,0.463031,-2.51935,-3.37201,21.1245,874.687,-28.1244,149.229,859.625,525.678,0,0,0.00120473,0.0001817,0.106534,0.772763,0.182852,0.802352,0,0
1436,0.448487,-2.51936,-3.35459,21.1472,854.37,-36.9748,147.455,839.33,509.353,0,0,0.00120473,0.0001817,0.109196,0.76923,0.176829,0.797741,0,0
1437,0.433944,-2.51936,-3.33717,21.1698,842.934,-40.7184,146.417,827.797,488.291,0,0,0.00120473,0.0001817,0.107048,0.769735,0.16661,0.796932,0,0
1438,0.4194,-2.51937,-3.31975,21.1925,836.542,-42.4058,145.557,821.24,470.828,0,0,0.00120473,0.0001817,0.102821,0.768674,0.156309,0.794527,0,0
1439,0.404856,-2.51938,-3.30233,21.2152,829.521,-43.7365,145.021,814.012,454.913,0,0,0.00120473,0.0001817,0.0985073,0.768317,0.14607,0.792754,0,0
1440,0.390312,-2.51939,-3.28491,21.2379,816.402,-41.6097,147.616,800.279,454.009,0,0,0.00120473,0.0001817,0.093352,0.774785,0.136433,0.7971,0,0
1441,0.375768,-2.51939,-3.26749,21.2606,803.283,-39.4828,150.21,786.546,453.105,0,0,0.00120473,0.0001817,0.0881966,0.781253,0.126796,0.801445,0,0
1442,0.367675,-2.5194,-3.2596,21.2719,795.848,-38.1931,150.704,778.932,452.598,0,0,0.00120473,0.0001817,0.0853747,0.784233,0.121331,0.803242,0,0
1443,0.359582,-2.5194,-3.25172,21.2832,788.413,-36.9033,151.197,771.318,452.091,0,0,0.00120473,0.0001817,0.0825529,0.787213,0.115865,0.805038,0,0
1444,0.351489,-2.5194,-3.24383,21.2945,780.978,-35.6136,151.69,763.703,451.584,0,0,0.00120473,0.0001817,0.0797311,0.790193,0.1104,0.806835,0,0
1445,0.343396,-2.51941,-3.23595,21.3058,773.544,-34.3238,152.184,756.089,451.077,0,0,0.00120473,0.0001817,0.0769092,0.793173,0.104935,0.808631,0,0
1446,0.335303,-2.51941,-3.22806,21.3171,766.108,-33.0341,152.677,748.474,450.57,0,0,0.00120473,0.0001817,0.0740874,0.796153,0.0994693,0.810427,0,0
1447,0.32721,-2.51941,-3.22018,21.3284,758.673,-31.7443,153.17,740.86,450.063,0,0,0.00120473,0.0001817,0.0712655,0.799133,0.0940039,0.812224,0,0
1448,0.319117,-2.51941,-3.21229,21.3397,751.239,-30.4546,153.664,733.246,449.557,0,0,0.00120473,0.0001817,0.0684437,0.802113,0.0885386,0.81402,0,0
1449,0.311024,-2.51942,-3.20441,21.351,743.804,-29.1648,154.157,725.631,449.05,0,0,0.00120473,0.0001817,0.0656218,0.805093,0.0830732,0.815817,0,0
1450,0.302931,-2.51942,-3.19652,21.3623,736.369,-27.8751,154.65,718.017,448.543,0,0,0.00120473,0.0001817,0.0628,0.808074,0.0776079,0.817613,0,0
1451,0.294838,-2.51942,-3.18864,21.3736,728.934,-26.5853,155.143,710.402,448.036,0,0,0.00120473,0.0001817,0.0599782,0.811054,0.0721425,0.819409,0,0
1452,0.286745,-2.51942,-3.18075,21.3849,721.499,-25.2956,155.637,702.788,447.529,0,0,0.00120473,0.0001817,0.0571563,0.814033,0.0666772,0.821206,0,0
1453,0.278652,-2.51943,-3.17287,21.3962,714.064,-24.0058,156.13,695.174,447.022,0,0,0.00120473,0.0001817,0.0543345,0.817014,0.0612119,0.823002,0,0
1454,0.270558,-2.51943,-3.16498,21.4075,706.629,-22.7161,156.623,687.559,446.515,0,0,0.00120473,0.0001817,0.0515126,0.819993,0.0557465,0.824799,0,0
1455,0.262465,-2.51943,-3.1571,21.4188,699.195,-21.4263,157.117,679.945,446.008,0,0,0.00120473,0.0001817,0.0486908,0.822974,0.0502812,0.826595,0,0
1456,0.254372,-2.51944,-3.14921,21.4301,694.854,-20.926,159.213,675.178,445.35,0,0,0.00120473,0.0001817,0.0460949,0.824558,0.0466848,0.827418,0,0
1457,0.246279,-2.51944,-3.14133,21.4414,694.876,-21.5386,163.568,674.427,444.48,0,0,0.00120473,0.0001817,0.0438177,0.824176,0.0457233,0.826869,0,0
1458,0.238186,-2.51944,-3.13344,21.4527,700.165,-19.1328,170.288,678.167,451.848,0,0,0.00120473,0.0001817,0.0413383,0.826219,0.0450433,0.828907,0,0
1459,0.230093,-2.51944,-3.12556,21.464,705.663,-16.6068,177.103,682.086,459.545,0,0,0.00120473,0.0001817,0.0388507,0.828359,0.0443744,0.831048,0,0
1460,0.222,-2.51945,-3.11768,21.4753,712.224,-15.1733,179.643,687.355,464.235,0,0,0.00120473,0.0001817,0.0385745,0.820592,0.0427564,0.823473,0,0
1461,0.213907,-2.51945,-3.10979,21.4866,719.345,-15.4095,181.739,692.63,473.433,0,0,0.00120473,0.0001817,0.041526,0.812535,0.0410552,0.815861,0,0
1462,0.21801,-2.51945,-3.10954,21.4907,717.831,-16.8893,182.382,690.895,475.722,0,0,0.00120473,0.0001817,0.0440793,0.817027,0.0419267,0.820491,0,0
1463,0.222113,-2.51945,-3.1093,21.4948,716.312,-18.3915,183.034,689.156,478.011,0,0,0.00120473,0.0001817,0.0466775,0.821513,0.0428007,0.825118,0,0
1464,0.226216,-2.51946,-3.10905,21.4989,714.791,-19.9163,183.694,687.416,480.298,0,0,0.00120473,0.0001817,0.0493207,0.825993,0.0436774,0.829741,0,0
1465,0.230319,-2.51946,-3.1088,21.503,713.266,-21.4635,184.364,685.672,482.585,0,0,0.00120473,0.0001817,0.0520092,0.830465,0.0445567,0.834363,0,0
1466,0.234422,-2.51946,-3.10856,21.5072,711.739,-23.0331,185.042,683.927,484.868,0,0,0.00120473,0.0001817,0.0547423,0.834931,0.0454387,0.838981,0,0
1467,0.238525,-2.51946,-3.10831,21.5113,710.209,-24.6253,185.729,682.179,487.151,0,0,0.00120473,0.0001817,0.0575207,0.839391,0.0463233,0.843597,0,0
1468,0.242628,-2.51946,-3.10806,21.5154,708.675,-26.2401,186.426,680.428,489.433,0,0,0.00120473,0.0001817,0.0603445,0.843844,0.0472105,0.84821,0,0
1469,0.246731,-2.51947,-3.10782,21.5195,707.139,-27.8773,187.131,678.675,491.711,0,0,0.00120473,0.0001817,0.0632129,0.84829,0.0481004,0.85282,0,0
1470,0.250834,-2.51947,-3.10757,21.5236,705.599,-29.5372,187.845,676.919,493.99,0,0,0.00120473,0.0001817,0.0661269,0.85273,0.0489929,0.857427,0,0
1471,0.254937,-2.51947,-3.10732,21.5277,705.687,-30.672,188.412,676.746,495.857,0,0,0.00120473,0.0001817,0.0686745,0.855256,0.0504456,0.860305,0,0
1472,0.25904,-2.51947,-3.10707,21.5318,708.838,-30.7876,188.686,679.555,496.88,0,0,0.00120473,0.0001817,0.0704593,0.854234,0.0529715,0.859981,0,0
1473,0.263143,-2.51947,-3.10683,21.5359,711.995,-30.9048,188.957,682.38,497.789,0,0,0.00120473,0.0001817,0.0722353,0.853269,0.0555357,0.859714,0,0
1474,0.267246,-2.51948,-3.10658,21.54,716.212,-31.3292,189.43,686.182,499.029,0,0,0.00120473,0.0001817,0.0745714,0.851691,0.0583823,0.858974,0,0
1475,0.271349,-2.51948,-3.10633,21.5441,722.382,-32.3237,190.269,691.791,500.867,0,0,0.00120473,0.0001817,0.0779392,0.848963,0.061714,0.857347,0,0
1476,0.275452,-2.51948,-3.10609,21.5483,728.618,-33.339,191.105,697.488,502.445,0,0,0.00120473,0.0001817,0.0813065,0.846298,0.0650895,0.855803,0,0
1477,0.279555,-2.51948,-3.10584,21.5524,734.92,-34.3748,191.938,703.271,503.762,0,0,0.00120473,0.0001817,0.0846731,0.843696,0.068509,0.854344,0,0
1478,0.283659,-2.51948,-3.10559,21.5565,741.286,-35.4308,192.767,709.139,504.819,0,0,0.00120473,0.0001817,0.0880387,0.841158,0.0719725,0.852969,0,0
1479,0.287762,-2.51949,-3.10535,21.5606,747.719,-36.5062,193.592,715.095,505.614,0,0,0.00120473,0.0001817,0.091402,0.838683,0.0754802,0.851677,0,0
1480,0.291865,-2.51949,-3.1051,21.5647,754.215,-37.6011,194.415,721.136,506.149,0,0,0.00120473,0.0001817,0.0947629,0.836273,0.079032,0.850469,0,0
1481,0.295968,-2.51949,-3.10485,21.5688,760.778,-38.7145,195.234,727.265,506.422,0,0,0.00120473,0.0001817,0.0981204,0.833925,0.0826283,0.849345,0,0
1482,0.269707,-2.51948,-3.10799,21.5953,718.879,-31.9287,189.512,688.811,499.085,0,0,0.00120473,0.0001817,0.0758151,0.850467,0.0600992,0.858258,0,0
1483,0.243446,-2.51946,-3.11112,21.6217,706.746,-25.24,185.179,679.26,485.22,0,0,0.00120473,0.0001817,0.0576545,0.844456,0.0473491,0.848564,0,0
1484,0.217185,-2.51945,-3.11425,21.6481,715.789,-14.8914,180.376,690.155,467.772,0,0,0.00120473,0.0001817,0.0392369,0.815653,0.0417431,0.818701,0,0
1485,0.190924,-2.51943,-3.11738,21.6746,725.394,-6.15464,177.011,700.787,458.532,0,0,0.00120473,0.0001817,0.0252321,0.788922,0.036572,0.791349,0,0
1486,0.164664,-2.51942,-3.12052,21.701,736.101,1.35194,175.471,710.997,464.267,0,0,0.00120473,0.0001817,0.0157932,0.766294,0.0319659,0.768608,0,0
1487,0.138403,-2.5194,-3.12365,21.7275,746.81,8.8586,173.93,721.208,470.001,0,0,0.00120473,0.0001817,0.00635428,0.743666,0.02736,0.745866,0,0
1488,0.112142,-2.51939,-3.12678,21.7539,757.517,16.3652,172.39,731.417,475.735,0,0,0.00120473,0.0001817,-0.00308462,0.721038,0.0227539,0.723125,0,0
1489,0.0858813,-2.51938,-3.12992,21.7804,768.225,23.8718,170.849,741.627,481.469,0,0,0.00120473,0.0001817,-0.0125235,0.69841,0.0181478,0.700383,0,0
1490,0.0596205,-2.51936,-3.13305,21.8068,774.68,30.0986,169.46,747.313,490.984,0,0,0.00120473,0.0001817,-0.0213703,0.675905,0.0125102,0.677705,0,0
1491,0.0333597,-2.51935,-3.13618,21.8333,757.184,29.0882,168.892,727.532,521.654,0,0,0.00120473,0.0001817,-0.0268646,0.654056,0.00105928,0.655346,0,0
1492,0.00709893,-2.51933,-3.13931,21.8597,751.787,26.9535,168.875,721.585,531.339,0,0,0.00120473,0.0001817,-0.0317649,0.652306,-0.00818179,0.653351,0,0
1493,-0.0191619,-2.51932,-3.14245,21.8862,759.343,24.045,170.582,730.452,518.842,0,0,0.00120473,0.0001817,-0.0353105,0.674877,-0.0147817,0.676109,0,0
1494,-0.0454226,-2.51931,-3.14558,21.9126,765.095,26.2547,170.411,736.811,513.619,0,0,0.00120473,0.0001817,-0.0374173,0.677008,-0.019327,0.678564,0,0
1495,-0.0716834,-2.51929,-3.14871,21.9391,770.543,29.331,169.921,742.745,509.626,0,0,0.00120473,0.0001817,-0.0392804,0.675678,-0.0235245,0.67758,0,0
1496,-0.0979442,-2.51928,-3.15185,21.9655,775.991,32.4072,169.431,748.68,505.633,0,0,0.00120473,0.0001817,-0.0411436,0.674348,-0.027722,0.676596,0,0
1497,-0.124205,-2.51926,-3.15498,21.992,781.438,35.4836,168.942,754.615,501.64,0,0,0.00120473,0.0001817,-0.0430067,0.673018,-0.0319195,0.675612,0,0
1498,-0.150466,-2.51925,-3.15811,22.0184,786.885,38.5599,168.452,760.549,497.648,0,0,0.00120473,0.0001817,-0.0448699,0.671688,-0.036117,0.674628,0,0
1499,-0.176727,-2.51924,-3.16125,22.0449,792.333,41.6362,167.962,766.483,493.655,0,0,0.00120473,0.0001817,-0.046733,0.670358,-0.0403146,0.673644,0,0
1500,-0.202987,-2.51922,-3.16438,22.0713,797.781,44.7124,167.473,772.418,489.662,0,0,0.00120473,0.0001817,-0.0485962,0.669028,-0.0445121,0.672661,0,0
1501,-0.229248,-2.51921,-3.16751,22.0977,803.228,47.7887,166.983,778.353,485.669,0,0,0.00120473,0.0001817,-0.0504593,0.667697,-0.0487096,0.671677,0,0
1502,-0.247093,-2.51918,-3.18596,22.1234,800.847,49.9894,162.951,776.379,497.913,0,0,0.00120473,0.0001817,-0.0523248,0.674219,-0.0502264,0.678372,0,0
1503,-0.264938,-2.51916,-3.20441,22.1491,797.778,49.7321,157.513,772.888,515.572,0,0,0.00120473,0.0001817,-0.0519558,0.664367,-0.0532896,0.668821,0,0
1504,-0.282782,-2.51914,-3.22287,22.1748,806.245,46.4052,156.379,780.799,524.802,0,0,0.00120473,0.0001817,-0.0505627,0.648791,-0.0596624,0.653786,0,0
1505,-0.300627,-2.51912,-3.24132,22.2004,817.568,46.0666,150.51,793.334,524.379,0,0,0.00120473,0.0001817,-0.0533018,0.649527,-0.0686753,0.656219,0,0
1506,-0.318472,-2.51909,-3.25977,22.2261,825.408,48.0925,141.803,802.86,522.61,0,0,0.00120473,0.0001817,-0.057496,0.652602,-0.0774105,0.661026,0,0
1507,-0.336316,-2.51907,-3.27822,22.2518,833.238,49.854,132.916,812.441,520.147,0,0,0.00120473,0.0001817,-0.061579,0.65563,-0.0860552,0.665788,0,0
1508,-0.354161,-2.51905,-3.29667,22.2774,841.052,51.0792,123.664,822.138,516.276,0,0,0.00120473,0.0001817,-0.0654368,0.658562,-0.0945166,0.670457,0,0
1509,-0.372006,-2.51902,-3.31513,22.3031,848.864,52.3045,114.412,831.834,512.405,0,0,0.00120473,0.0001817,-0.0692946,0.661494,-0.102978,0.675125,0,0
1510,-0.389851,-2.519,-3.33358,22.3288,856.678,53.5297,105.159,841.53,508.534,0,0,0.00120473,0.0001817,-0.0731524,0.664426,-0.111439,0.679794,0,0
1511,-0.407695,-2.51898,-3.35203,22.3544,864.492,54.7549,95.9072,851.227,504.664,0,0,0.00120473,0.0001817,-0.0770102,0.667358,-0.119901,0.684463,0,0
1512,-0.42554,-2.51896,-3.37048,22.3801,872.305,55.9802,86.655,860.923,500.793,0,0,0.00120473,0.0001817,-0.0808681,0.67029,-0.128362,0.689132,0,0
1513,-0.443385,-2.51893,-3.38893,22.4058,880.118,57.2053,77.4026,870.619,496.922,0,0,0.00120473,0.0001817,-0.0847258,0.673222,-0.136823,0.6938,0,0
1514,-0.461229,-2.51891,-3.40738,22.4314,890.909,54.0984,70.3602,882.472,493.479,0,0,0.00120473,0.0001817,-0.0882316,0.682135,-0.146683,0.704531,0,0
1515,-0.479074,-2.51889,-3.42584,22.4571,904.828,46.4407,65.6391,896.59,490.484,0,0,0.00120473,0.0001817,-0.0913676,0.697332,-0.158013,0.721629,0,0
1516,-0.496919,-2.51887,-3.44429,22.4828,921.583,40.0005,61.7158,913.562,491.922,0,0,0.00120473,0.0001817,-0.0935989,0.704671,-0.169822,0.731578,0,0
1517,-0.514764,-2.51884,-3.46274,22.5085,943.742,31.7369,58.6516,936.321,494.756,0,0,0.00120473,0.0001817,-0.0945647,0.706107,-0.181063,0.736438,0,0
1518,-0.532608,-2.51882,-3.48119,22.5341,965.901,23.4734,55.5872,959.079,497.589,0,0,0.00120473,0.0001817,-0.0955304,0.707543,-0.192305,0.741297,0,0
1519,-0.550453,-2.5188,-3.49964,22.5598,988.061,15.2098,52.5229,981.839,500.422,0,0,0.00120473,0.0001817,-0.0964962,0.708979,-0.203546,0.746157,0,0
1520,-0.568298,-2.51877,-3.51809,22.5855,1010.22,6.94632,49.4586,1004.6,503.256,0,0,0.00120473,0.0001817,-0.0974619,0.710415,-0.214788,0.751016,0,0
1521,-0.586142,-2.51875,-3.53655,22.6111,1032.38,-1.31726,46.3943,1027.36,506.089,0,0,0.00120473,0.0001817,-0.0984276,0.711851,-0.226029,0.755876,0,0
1522,-0.58497,-2.51873,-3.56387,22.6385,1027.91,-10.5914,38.825,1023.55,508.078,0,0,0.00120473,0.0001817,-0.0949372,0.712959,-0.225727,0.757448,0,0
1523,-0.583799,-2.51871,-3.5912,22.6658,1023.49,-20.0407,31.2671,1019.8,509.671,0,0,0.00120473,0.0001817,-0.0913593,0.713361,-0.225355,0.758282,0,0
1524,-0.582627,-2.51869,-3.61853,22.6932,1019.66,-32.0367,23.8752,1016.85,505.514,0,0,0.00120473,0.0001817,-0.0865101,0.703501,-0.223949,0.748382,0,0
1525,-0.581455,-2.51867,-3.64585,22.7205,1015.84,-44.0327,16.4833,1013.91,501.358,0,0,0.00120473,0.0001817,-0.0816609,0.693642,-0.222544,0.738482,0,0
1526,-0.580283,-2.51864,-3.67318,22.7479,1017.45,-54.0049,7.26949,1015.28,503.08,0,0,0.00120473,0.0001817,-0.0755985,0.695197,-0.224429,0.74011,0,0
1527,-0.579111,-2.51862,-3.70051,22.7752,1022.35,-62.7513,-3.04781,1019.27,508.363,0,0,0.00120473,0.0001817,-0.0688013,0.703665,-0.228307,0.74872,0,0
1528,-0.577939,-2.5186,-3.72783,22.8026,1027.25,-71.4977,-13.3651,1023.25,513.647,0,0,0.00120473,0.0001817,-0.0620041,0.712133,-0.232184,0.75733,0,0
1529,-0.576767,-2.51858,-3.75516,22.8299,1032.15,-80.244,-23.6824,1027.24,518.93,0,0,0.00120473,0.0001817,-0.0552069,0.720601,-0.236062,0.76594,0,0
1530,-0.575595,-2.51856,-3.78249,22.8573,1036.19,-89.0995,-33.3148,1030.38,523.416,0,0,0.00120473,0.0001817,-0.0472688,0.720039,-0.237192,0.764897,0,0
1531,-0.574423,-2.51854,-3.80981,22.8846,1039.92,-97.9928,-42.7091,1033.22,527.624,0,0,0.00120473,0.0001817,-0.0389342,0.716338,-0.237368,0.760499,0,0
1532,-0.573251,-2.51851,-3.83714,22.912,1043.66,-106.886,-52.1034,1036.07,531.832,0,0,0.00120473,0.0001817,-0.0305996,0.712637,-0.237544,0.7561,0,0
1533,-0.572079,-2.51849,-3.86447,22.9394,1058.8,-112.603,-55.74,1050.77,544.152,0,0,0.00120473,0.0001817,-0.0255554,0.721693,-0.240188,0.764824,0,0
1534,-0.570907,-2.51847,-3.89179,22.9667,1075.61,-115.59,-54.5031,1067.46,562.205,0,0,0.00120473,0.0001817,-0.0236194,0.736642,-0.245164,0.780037,0,0
1535,-0.569735,-2.51845,-3.91912,22.9941,1086.78,-118.484,-53.1532,1078.48,579.583,0,0,0.00120473,0.0001817,-0.0219852,0.748236,-0.250367,0.792115,0,0
1536,-0.568563,-2.51843,-3.94645,23.0214,1107.54,-121.892,-55.9855,1099.06,574.604,0,0,0.00120473,0.0001817,-0.0200959,0.738638,-0.246976,0.782164,0,0
1537,-0.567391,-2.51841,-3.97377,23.0488,1119.54,-121.128,-52.7567,1111.29,561.998,0,0,0.00120473,0.0001817,-0.0165607,0.701557,-0.228656,0.741605,0,0
1538,-0.566219,-2.51839,-4.0011,23.0761,1131.25,-120.231,-49.3306,1123.24,549.187,0,0,0.00120473,0.0001817,-0.0129742,0.663644,-0.20988,0.700118,0,0
1539,-0.565047,-2.51836,-4.02843,23.1035,1142.96,-119.334,-45.9045,1135.2,536.377,0,0,0.00120473,0.0001817,-0.0093876,0.625732,-0.191105,0.658631,0,0
1540,-0.563875,-2.51834,-4.05575,23.1308,1154.68,-118.437,-42.4784,1147.15,523.567,0,0,0.00120473,0.0001817,-0.00580103,0.587819,-0.172329,0.617144,0,0
1541,-0.562703,-2.51832,-4.08308,23.1582,1166.39,-117.541,-39.0523,1159.1,510.756,0,0,0.00120473,0.0001817,-0.00221447,0.549907,-0.153553,0.575657,0,0
1542,-0.55016,-2.51832,-4.09492,23.1754,1152.7,-114.867,-35.8251,1145.71,512.118,0,0,0.00120473,0.0001817,-0.000731443,0.542936,-0.142327,0.565992,0,0
1543,-0.537617,-2.51831,-4.10677,23.1927,1141.07,-116.681,-36.5888,1133.51,509.381,0,0,0.00120473,0.0001817,0.000829299,0.555978,-0.134901,0.577072,0,0
1544,-0.525075,-2.51831,-4.11861,23.2099,1131.4,-122.812,-41.1917,1122.44,502.7,0,0,0.00120473,0.0001817,0.00246466,0.588273,-0.131132,0.60811,0,0
1545,-0.512532,-2.5183,-4.13045,23.2272,1121.74,-128.944,-45.7946,1111.38,496.02,0,0,0.00120473,0.0001817,0.00410004,0.620568,-0.127363,0.639148,0,0
1546,-0.499989,-2.5183,-4.1423,23.2444,1112.08,-135.075,-50.3976,1100.32,489.339,0,0,0.00120473,0.0001817,0.00573549,0.652863,-0.123594,0.670186,0,0
1547,-0.487446,-2.5183,-4.15414,23.2617,1102.42,-141.206,-55.0005,1089.25,482.658,0,0,0.00120473,0.0001817,0.00737086,0.685158,-0.119825,0.701224,0,0
1548,-0.474904,-2.51829,-4.16598,23.2789,1092.75,-147.338,-59.6034,1078.19,475.977,0,0,0.00120473,0.0001817,0.00900624,0.717454,-0.116056,0.732262,0,0
1549,-0.462361,-2.51829,-4.17783,23.2962,1083.09,-153.469,-64.2065,1067.12,469.296,0,0,0.00120473,0.0001817,0.0106417,0.749749,-0.112287,0.7633,0,0
1550,-0.449818,-2.51828,-4.18967,23.3134,1073.43,-159.6,-68.8094,1056.06,462.616,0,0,0.00120473,0.0001817,0.012277,0.782044,-0.108518,0.794338,0,0
1551,-0.437275,-2.51828,-4.20151,23.3307,1063.77,-165.732,-73.4125,1044.99,455.934,0,0,0.00120473,0.0001817,0.0139125,0.81434,-0.104749,0.825376,0,0
1552,-0.424733,-2.51828,-4.21336,23.3479,1056.15,-164.058,-74.832,1037.22,454.268,0,0,0.00120473,0.0001817,0.01399,0.822847,-0.104833,0.834146,0,0
1553,-0.41219,-2.51827,-4.2252,23.3652,1049.49,-158.738,-74.7647,1030.99,454.943,0,0,0.00120473,0.0001817,0.0133399,0.820243,-0.106718,0.832516,0,0
1554,-0.399647,-2.51827,-4.23704,23.3824,1042.83,-153.418,-74.6975,1024.75,455.618,0,0,0.00120473,0.0001817,0.0126898,0.81764,-0.108602,0.830886,0,0
1555,-0.387104,-2.51826,-4.24889,23.3997,1017.04,-153.241,-76.7285,997.912,444.178,0,0,0.00120473,0.0001817,0.0132362,0.822373,-0.0947264,0.832399,0,0
1556,-0.374562,-2.51826,-4.26073,23.4169,980.057,-156.864,-80.9739,958.75,422.722,0,0,0.00120473,0.0001817,0.0145284,0.832629,-0.0679504,0.835897,0,0
1557,-0.362019,-2.51826,-4.27257,23.4342,1009.44,-149.361,-85.6685,988.785,421.086,0,0,0.00120473,0.0001817,0.0126119,0.830956,-0.0673843,0.833931,0,0
1558,-0.349476,-2.51825,-4.28442,23.4514,1043.76,-141.349,-90.5718,1023.89,420.666,0,0,0.00120473,0.0001817,0.0106635,0.829933,-0.0682436,0.833049,0,0
1559,-0.336933,-2.51825,-4.29626,23.4687,1071.1,-133.438,-95.8847,1051.76,416.8,0,0,0.00120473,0.0001817,0.00878005,0.827475,-0.0681099,0.830688,0,0
1560,-0.324391,-2.51824,-4.3081,23.4859,1078.74,-125.811,-102.354,1059.21,403.205,0,0,0.00120473,0.0001817,0.00708014,0.820966,-0.0651727,0.824147,0,0
1561,-0.311848,-2.51824,-4.31995,23.5032,1086.38,-118.184,-108.823,1066.66,389.611,0,0,0.00120473,0.0001817,0.00538025,0.814458,-0.0622356,0.817606,0,0
1562,-0.302614,-2.51824,-4.32904,23.5161,1092.44,-112.534,-113.66,1072.57,379.305,0,0,0.00120473,0.0001817,0.00410282,0.809238,-0.0600989,0.812366,0,0
1563,-0.29338,-2.51823,-4.33814,23.5291,1101.67,-107.89,-123.14,1079.41,354.104,0,0,0.00120473,0.0001817,0.00584963,0.829077,-0.0596688,0.832446,0,0
1564,-0.284146,-2.51823,-4.34724,23.5421,1112.25,-103.054,-133.602,1087.37,327.097,0,0,0.00120473,0.0001817,0.00766813,0.852949,-0.0596067,0.856601,0,0
1565,-0.274912,-2.51823,-4.35634,23.555,1123.75,-97.8465,-144.355,1096.39,300.612,0,0,0.00120473,0.0001817,0.00906601,0.877007,-0.0596598,0.880942,0,0
1566,-0.265678,-2.51822,-4.36544,23.568,1136.17,-92.271,-155.399,1106.46,274.658,0,0,0.00120473,0.0001817,0.0100447,0.901245,-0.0598304,0.905467,0,0
1567,-0.256444,-2.51822,-4.37454,23.581,1149.53,-86.3291,-166.739,1117.6,249.234,0,0,0.00120473,0.0001817,0.0106062,0.925668,-0.0601215,0.930179,0,0
1568,-0.24721,-2.51822,-4.38364,23.5939,1163.83,-80.0233,-178.379,1129.82,224.341,0,0,0.00120473,0.0001817,0.0107528,0.950278,-0.0605356,0.955081,0,0
1569,-0.237976,-2.51821,-4.39274,23.6069,1179.08,-73.3558,-190.319,1143.1,199.987,0,0,0.00120473,0.0001817,0.0104859,0.975071,-0.0610749,0.980169,0,0
1570,-0.228742,-2.51821,-4.40184,23.6199,1195.27,-66.3285,-202.567,1157.48,176.168,0,0,0.00120473,0.0001817,0.00980787,1.00006,-0.0617429,1.00545,0,0
1571,-0.219508,-2.51821,-4.41093,23.6328,1212.43,-58.9436,-215.122,1172.94,152.89,0,0,0.00120473,0.0001817,0.00872022,1.02523,-0.0625418,1.03093,0,0
1572,-0.210274,-2.51821,-4.42003,23.6458,1230.56,-51.2032,-227.99,1189.49,130.154,0,0,0.00120473,0.0001817,0.00722486,1.05059,-0.0634741,1.05659,0,0
1573,-0.20104,-2.5182,-4.42913,23.6587,1249.65,-43.1095,-241.173,1207.15,107.961,0,0,0.00120473,0.0001817,0.0053237,1.07615,-0.0645426,1.08246,0,0
1574,-0.191807,-2.5182,-4.43823,23.6717,1269.72,-34.6646,-254.673,1225.9,86.3166,0,0,0.00120473,0.0001817,0.00301831,1.1019,-0.0657492,1.10852,0,0
1575,-0.182573,-2.5182,-4.44733,23.6847,1290.78,-25.8702,-268.496,1245.77,65.2188,0,0,0.00120473,0.0001817,0.000310576,1.12784,-0.0670973,1.13478,0,0
1576,-0.173339,-2.51819,-4.45643,23.6976,1312.83,-16.7284,-282.643,1266.76,44.6732,0,0,0.00120473,0.0001817,-0.00279796,1.15398,-0.068589,1.16124,0,0
1577,-0.164105,-2.51819,-4.46553,23.7106,1333.15,-7.24077,-296.23,1285.85,23.8354,0,0,0.00120473,0.0001817,-0.00788071,1.20527,-0.0671387,1.21286,0,0
1578,-0.154871,-2.51819,-4.47463,23.7236,1332.31,-0.420628,-301.672,1280.42,-8.19472,0,0,0.00120473,0.0001817,-0.0255889,1.55712,-0.0319308,1.5648,0,0
1579,-0.145637,-2.51818,-4.48373,23.7365,1329.78,1.71055,-305.062,1271.99,-46.6743,0,0,0.00120473,0.0001817,-0.0427708,2.10551,0.0146813,2.11328,0,0
1580,-0.136403,-2.51818,-4.49283,23.7495,1324.1,3.55639,-308.021,1261.5,-83.6898,0,0,0.00120473,0.0001817,-0.0562924,2.71828,0.0558741,2.72608,0,0
1581,-0.127169,-2.51818,-4.50192,23.7625,1315.23,5.12547,-310.547,1248.94,-119.22,0,0,0.00120473,0.0001817,-0.0661916,3.39634,0.0917833,3.40409,0,0
1582,-0.122457,-2.51819,-4.48892,23.7763,1328.5,2.04798,-304.442,1269.13,-64.8774,0,0,0.00120473,0.0001817,-0.0353179,2.33015,0.0320472,2.33734,0,0
1583,-0.117746,-2.5182,-4.47592,23.7901,1334.89,-0.400319,-297.478,1285.27,-7.31304,0,0,0.00120473,0.0001817,-0.0049759,1.42802,-0.0184209,1.4345,0,0
1584,-0.113034,-2.51821,-4.46291,23.8039,1287.37,-2.33625,-274.865,1244.21,38.3125,0,0,0.00120473,0.0001817,0.00333281,1.12342,-0.0243784,1.1288,0,0
1585,-0.108323,-2.51823,-4.44991,23.8178,1226.46,-3.72564,-248.84,1187.69,81.8494,0,0,0.00120473,0.0001817,0.00092568,1.04488,-0.0146776,1.04913,0,0
1586,-0.103611,-2.51824,-4.43691,23.8316,1176.1,-4.52966,-226.824,1142.03,130.356,0,0,0.00120473,0.0001817,-0.00249369,0.969041,-0.00712319,0.972311,0,0
1587,-0.0988995,-2.51825,-4.42391,23.8454,1136.05,-4.755,-208.727,1106.96,183.703,0,0,0.00120473,0.0001817,-0.0069111,0.895838,-0.00167798,0.89826,0,0
1588,-0.094188,-2.51826,-4.4109,23.8593,1106.07,-4.40824,-194.462,1082.24,241.778,0,0,0.00120473,0.0001817,-0.0123139,0.825186,0.00169452,0.826897,0,0
1589,-0.0894764,-2.51828,-4.3979,23.8731,1070.23,-3.94453,-191.879,1046.4,250.816,0,0,0.00120473,0.0001817,-0.0131214,0.828083,0.00347461,0.829343,0,0
1590,-0.0847648,-2.51829,-4.3849,23.8869,1032.8,-3.50866,-190.618,1008.24,252.721,0,0,0.00120473,0.0001817,-0.0132187,0.840946,0.00519327,0.841782,0,0
1591,-0.0800533,-2.5183,-4.37189,23.9008,995.379,-3.07277,-189.357,970.072,254.625,0,0,0.00120473,0.0001817,-0.0133159,0.853809,0.00691199,0.854221,0,0
1592,-0.0753417,-2.51831,-4.35889,23.9146,975.57,-2.39468,-186.889,950.232,263.969,0,0,0.00120473,0.0001817,-0.0128365,0.865154,0.00932394,0.86537,0,0
1593,-0.0706302,-2.51833,-4.34589,23.9284,959.703,-1.3096,-179.507,935.312,282.389,0,0,0.00120473,0.0001817,-0.0128587,0.858665,0.0115386,0.858908,0,0
1594,-0.0659186,-2.51834,-4.33288,23.9422,951.977,0.0500136,-172.968,928.634,302.793,0,0,0.00120473,0.0001817,-0.0129663,0.858083,0.0144931,0.858506,0,0
1595,-0.0612071,-2.51835,-4.31988,23.9561,946.758,1.49414,-166.688,924.492,323.809,0,0,0.00120473,0.0001817,-0.0131002,0.85932,0.0176753,0.85997,0,0
1596,-0.0564955,-2.51836,-4.30688,23.9699,941.539,2.93827,-160.408,920.35,344.825,0,0,0.00120473,0.0001817,-0.0132341,0.860556,0.0208575,0.861434,0,0
1597,-0.0517839,-2.51838,-4.29387,23.9837,936.321,4.38239,-154.128,916.209,365.841,0,0,0.00120473,0.0001817,-0.013368,0.861792,0.0240397,0.862897,0,0
1598,-0.0470724,-2.51839,-4.28087,23.9976,931.102,5.82652,-147.848,912.068,386.856,0,0,0.00120473,0.0001817,-0.013502,0.863028,0.0272219,0.864361,0,0
1599,-0.0423608,-2.5184,-4.26787,24.0114,925.883,7.27065,-141.568,907.926,407.872,0,0,0.00120473,0.0001817,-0.0136359,0.864264,0.0304041,0.865824,0,0
1600,-0.0376493,-2.51841,-4.25486,24.0252,920.665,8.71478,-135.288,903.786,428.888,0,0,0.00120473,0.0001817,-0.0137698,0.8655,0.0335863,0.867288,0,0
1601,-0.0329377,-2.51843,-4.24186,24.0391,907.827,10.8484,-128.693,891.536,445.966,0,0,0.00120473,0.0001817,-0.0135859,0.861633,0.034622,0.863407,0,0
1602,-0.0447756,-2.51843,-4.23218,24.0544,878.118,6.05191,-121.515,862.469,454.705,0,0,0.00120473,0.0001817,-0.0123724,0.849953,0.0275781,0.851039,0,0
1603,-0.0566135,-2.51843,-4.22249,24.0696,861.177,2.63232,-116.131,845.932,464.475,0,0,0.00120473,0.0001817,-0.0110549,0.847958,0.0202399,0.8485,0,0
1604,-0.0684514,-2.51843,-4.21281,24.0849,862.204,-2.9589,-110.101,847.566,480.084,0,0,0.00120473,0.0001817,-0.00984096,0.852434,0.0168308,0.853079,0,0
1605,-0.0802894,-2.51844,-4.20312,24.1002,857.054,-10.0589,-102.261,842.943,494.87,0,0,0.00120473,0.0001817,-0.0085225,0.849358,0.0139363,0.850135,0,0
1606,-0.0921273,-2.51844,-4.19344,24.1155,851.904,-17.159,-94.4212,838.318,509.657,0,0,0.00120473,0.0001817,-0.00720403,0.846282,0.0110419,0.84719,0,0
1607,-0.103965,-2.51844,-4.18375,24.1308,846.754,-24.2591,-86.5811,833.695,524.443,0,0,0.00120473,0.0001817,-0.00588556,0.843206,0.00814737,0.844245,0,0
1608,-0.115803,-2.51845,-4.17407,24.1461,841.605,-31.3591,-78.7413,829.071,539.229,0,0,0.00120473,0.0001817,-0.0045671,0.84013,0.00525286,0.841301,0,0
1609,-0.127641,-2.51845,-4.16438,24.1614,836.456,-38.4591,-70.9011,824.448,554.016,0,0,0.00120473,0.0001817,-0.00324863,0.837054,0.00235835,0.838356,0,0
1610,-0.139479,-2.51845,-4.1547,24.1767,831.307,-45.5591,-63.0613,819.825,568.802,0,0,0.00120473,0.0001817,-0.00193017,0.833978,-0.000536168,0.835412,0,0
1611,-0.151317,-2.51845,-4.14501,24.192,826.157,-52.6592,-55.2212,815.201,583.589,0,0,0.00120473,0.0001817,-0.000611702,0.830902,-0.00343065,0.832467,0,0
1612,-0.163155,-2.51846,-4.13533,24.2073,821.007,-59.7593,-47.3811,810.577,598.376,0,0,0.00120473,0.0001817,0.00070677,0.827826,-0.00632513,0.829523,0,0
1613,-0.174993,-2.51846,-4.12564,24.2226,814.941,-64.7799,-41.6234,804.985,609.519,0,0,0.00120473,0.0001817,0.00112621,0.826283,-0.0123634,0.828421,0,0
1614,-0.186831,-2.51846,-4.11596,24.2379,810.895,-63.8015,-38.1915,801.706,616.689,0,0,0.00120473,0.0001817,-0.000112696,0.820052,-0.0213,0.822882,0,0
1615,-0.198669,-2.51846,-4.10627,24.2532,806.848,-62.8232,-34.7598,798.426,623.86,0,0,0.00120473,0.0001817,-0.00135155,0.813822,-0.0302364,0.817342,0,0
1616,-0.210506,-2.51847,-4.09659,24.2685,802.8,-61.8447,-31.3279,795.145,631.031,0,0,0.00120473,0.0001817,-0.00259047,0.807591,-0.0391729,0.811803,0,0
1617,-0.222344,-2.51847,-4.0869,24.2838,798.753,-60.8662,-27.896,791.865,638.201,0,0,0.00120473,0.0001817,-0.00382939,0.80136,-0.0481094,0.806263,0,0
1618,-0.234182,-2.51847,-4.07722,24.2991,794.706,-59.8879,-24.4642,788.585,645.372,0,0,0.00120473,0.0001817,-0.00506825,0.795129,-0.0570458,0.800724,0,0
1619,-0.24602,-2.51847,-4.06753,24.3144,790.66,-58.9095,-21.0324,785.305,652.543,0,0,0.00120473,0.0001817,-0.00630715,0.788898,-0.0659824,0.795185,0,0
1620,-0.257858,-2.51848,-4.05785,24.3297,786.613,-57.9312,-17.6006,782.025,659.713,0,0,0.00120473,0.0001817,-0.00754601,0.782668,-0.0749188,0.789646,0,0
1621,-0.269696,-2.51848,-4.04816,24.345,782.566,-56.9527,-14.1688,778.744,666.884,0,0,0.00120473,0.0001817,-0.00878493,0.776437,-0.0838553,0.784107,0,0
1622,-0.274355,-2.51849,-4.03767,24.3564,776.315,-54.3704,-11.5623,773.175,671.674,0,0,0.00120473,0.0001817,-0.00997689,0.769515,-0.0877184,0.77751,0,0
1623,-0.279014,-2.51849,-4.02717,24.3679,772.875,-54.7845,-12.165,769.733,664.147,0,0,0.00120473,0.0001817,-0.0105777,0.766681,-0.0883474,0.774606,0,0
1624,-0.283673,-2.5185,-4.01668,24.3794,769.435,-55.1987,-12.7677,766.291,656.621,0,0,0.00120473,0.0001817,-0.0111784,0.763847,-0.0889765,0.771702,0,0
1625,-0.288332,-2.5185,-4.00619,24.3909,765.996,-55.613,-13.3705,762.85,649.094,0,0,0.00120473,0.0001817,-0.0117791,0.761014,-0.0896057,0.768799,0,0
1626,-0.292991,-2.51851,-3.99569,24.4024,762.556,-56.0272,-13.9732,759.408,641.568,0,0,0.00120473,0.0001817,-0.0123798,0.75818,-0.0902348,0.765895,0,0
1627,-0.29765,-2.51852,-3.9852,24.4139,759.116,-56.4414,-14.5759,755.966,634.041,0,0,0.00120473,0.0001817,-0.0129806,0.755346,-0.0908638,0.762992,0,0
1628,-0.302309,-2.51852,-3.9747,24.4253,755.675,-56.8556,-15.1787,752.523,626.515,0,0,0.00120473,0.0001817,-0.0135813,0.752512,-0.0914929,0.760088,0,0
1629,-0.306968,-2.51853,-3.96421,24.4368,752.235,-57.2697,-15.7814,749.081,618.988,0,0,0.00120473,0.0001817,-0.014182,0.749678,-0.092122,0.757184,0,0
1630,-0.311627,-2.51854,-3.95371,24.4483,748.795,-57.6839,-16.3841,745.639,611.461,0,0,0.00120473,0.0001817,-0.0147828,0.746845,-0.092751,0.75428,0,0
1631,-0.316286,-2.51854,-3.94322,24.4598,745.355,-58.0981,-16.9869,742.197,603.935,0,0,0.00120473,0.0001817,-0.0153835,0.744011,-0.09338,0.751376,0,0
1632,-0.320945,-2.51855,-3.93272,24.4713,741.916,-58.5124,-17.5896,738.756,596.409,0,0,0.00120473,0.0001817,-0.0159842,0.741178,-0.0940093,0.748473,0,0
1633,-0.325604,-2.51856,-3.92223,24.4827,738.476,-58.9266,-18.1923,735.314,588.882,0,0,0.00120473,0.0001817,-0.016585,0.738344,-0.0946383,0.745569,0,0
1634,-0.330263,-2.51856,-3.91173,24.4942,735.036,-59.3408,-18.7951,731.872,581.355,0,0,0.00120473,0.0001817,-0.0171857,0.73551,-0.0952674,0.742666,0,0
1635,-0.334922,-2.51857,-3.90124,24.5057,731.596,-59.7549,-19.3978,728.43,573.829,0,0,0.00120473,0.0001817,-0.0177865,0.732676,-0.0958964,0.739762,0,0
1636,-0.339581,-2.51857,-3.89074,24.5172,729.517,-60.0929,-20.1911,726.337,566.563,0,0,0.00120473,0.0001817,-0.0184333,0.729788,-0.0967023,0.736964,0,0
1637,-0.34424,-2.51858,-3.88025,24.5287,731.913,-60.18,-21.6113,728.682,560.156,0,0,0.00120473,0.0001817,-0.0192321,0.726721,-0.0980894,0.734512,0,0
1638,-0.348899,-2.51859,-3.86975,24.5402,734.311,-60.2672,-23.0315,731.029,553.748,0,0,0.00120473,0.0001817,-0.0200307,0.723654,-0.0994768,0.732062,0,0
1639,-0.353558,-2.51859,-3.85926,24.5516,736.707,-60.3543,-24.4517,733.374,547.34,0,0,0.00120473,0.0001817,-0.0208294,0.720586,-0.100864,0.72961,0,0
1640,-0.358217,-2.5186,-3.84876,24.5631,739.104,-60.4414,-25.8719,735.72,540.933,0,0,0.00120473,0.0001817,-0.0216281,0.717519,-0.102251,0.727159,0,0
1641,-0.362876,-2.51861,-3.83827,24.5746,741.5,-60.5285,-27.2921,738.065,534.525,0,0,0.00120473,0.0001817,-0.0224268,0.714451,-0.103638,0.724708,0,0
1642,-0.359377,-2.51862,-3.82446,24.5889,729.855,-58.1401,-27.444,726.579,525.933,0,0,0.00120473,0.0001817,-0.0231809,0.708835,-0.0985806,0.718247,0,0
1643,-0.355878,-2.51863,-3.81065,24.6031,718.211,-55.7517,-27.5959,715.093,517.341,0,0,0.00120473,0.0001817,-0.023935,0.703219,-0.0935229,0.711786,0,0
1644,-0.352379,-2.51864,-3.79684,24.6173,706.566,-53.3633,-27.7478,703.607,508.749,0,0,0.00120473,0.0001817,-0.024689,0.697603,-0.0884652,0.705325,0,0
1645,-0.34888,-2.51866,-3.78304,24.6316,694.92,-50.9748,-27.8996,692.12,500.157,0,0,0.00120473,0.0001817,-0.0254431,0.691986,-0.0834073,0.698864,0,0
1646,-0.34538,-2.51867,-3.76923,24.6458,683.276,-48.5864,-28.0515,680.634,491.565,0,0,0.00120473,0.0001817,-0.0261972,0.68637,-0.0783496,0.692403,0,0
1647,-0.341881,-2.51868,-3.75542,24.6601,674.808,-46.563,-27.9922,672.334,484.889,0,0,0.00120473,0.0001817,-0.0268259,0.681286,-0.0741826,0.686581,0,0
1648,-0.338382,-2.5187,-3.74161,24.6743,672.731,-45.274,-27.5078,670.445,482.066,0,0,0.00120473,0.0001817,-0.0272027,0.677272,-0.0718074,0.682045,0,0
1649,-0.334883,-2.51871,-3.7278,24.6886,673.507,-44.409,-27.268,671.377,479.522,0,0,0.00120473,0.0001817,-0.027498,0.67307,-0.0699959,0.677529,0,0
1650,-0.331384,-2.51872,-3.714,24.7028,680.106,-44.41,-27.5277,678.072,477.549,0,0,0.00120473,0.0001817,-0.0276272,0.66848,-0.0693359,0.673057,0,0
1651,-0.327885,-2.51873,-3.70019,24.7171,684.142,-44.4781,-27.6814,682.069,477.713,0,0,0.00120473,0.0001817,-0.0274228,0.668655,-0.0660685,0.672901,0,0
1652,-0.324386,-2.51875,-3.68638,24.7313,688.585,-43.893,-27.278,686.406,478.606,0,0,0.00120473,0.0001817,-0.0275031,0.669948,-0.062749,0.673891,0,0
1653,-0.320887,-2.51876,-3.67257,24.7455,692.124,-41.8657,-24.6335,689.9,478.285,0,0,0.00120473,0.0001817,-0.0281372,0.671757,-0.0598278,0.67548,0,0
1654,-0.317388,-2.51877,-3.65877,24.7598,692.661,-39.3101,-20.2192,690.552,475.667,0,0,0.00120473,0.0001817,-0.0288252,0.673935,-0.0569014,0.677349,0,0
1655,-0.313888,-2.51878,-3.64496,24.774,694.591,-36.1863,-15.7391,692.499,473.634,0,0,0.00120473,0.0001817,-0.029944,0.676611,-0.055345,0.679932,0,0
1656,-0.310389,-2.5188,-3.63115,24.7883,696.521,-33.0625,-11.2589,694.446,471.602,0,0,0.00120473,0.0001817,-0.0310629,0.679288,-0.0537885,0.682516,0,0
1657,-0.30689,-2.51881,-3.61734,24.8025,698.45,-29.9388,-6.77878,696.394,469.57,0,0,0.00120473,0.0001817,-0.0321818,0.681964,-0.0522321,0.685099,0,0
1658,-0.303391,-2.51882,-3.60353,24.8168,700.379,-26.815,-2.2987,698.341,467.538,0,0,0.00120473,0.0001817,-0.0333006,0.684639,-0.0506756,0.687682,0,0
1659,-0.299892,-2.51883,-3.58973,24.831,702.309,-23.6912,2.18149,700.288,465.506,0,0,0.00120473,0.0001817,-0.0344195,0.687316,-0.0491191,0.690265,0,0
1660,-0.296393,-2.51885,-3.57592,24.8452,703.837,-21.0048,6.80449,701.846,463.471,0,0,0.00120473,0.0001817,-0.0349882,0.689033,-0.0468887,0.69189,0,0
1661,-0.292894,-2.51886,-3.56211,24.8595,705.282,-18.4092,11.4571,703.322,461.437,0,0,0.00120473,0.0001817,-0.0354428,0.690552,-0.0445184,0.693315,0,0
1662,-0.25971,-2.51887,-3.56737,24.8931,703.967,-23.3555,7.93515,701.808,459.65,0,0,0.00120473,0.0001817,-0.0301742,0.682552,-0.0417126,0.685141,0,0
1663,-0.226527,-2.51888,-3.57262,24.9267,702.651,-28.3018,4.41307,700.294,457.863,0,0,0.00120473,0.0001817,-0.0249057,0.674553,-0.0389068,0.676968,0,0
1664,-0.193344,-2.51889,-3.57787,24.9603,701.336,-33.248,0.891077,698.78,456.077,0,0,0.00120473,0.0001817,-0.0196372,0.666553,-0.036101,0.668794,0,0
1665,-0.160161,-2.5189,-3.58313,24.9939,701.282,-36.472,-0.979319,698.633,458.134,0,0,0.00120473,0.0001817,-0.0144772,0.660213,-0.031568,0.662257,0,0
1666,-0.126977,-2.51891,-3.58838,25.0275,704.574,-35.1322,1.52697,702.107,470.377,0,0,0.00120473,0.0001817,-0.00960486,0.65827,-0.0224583,0.660059,0,0
1667,-0.0937942,-2.51892,-3.59364,25.0611,707.866,-33.7924,4.03318,705.581,482.619,0,0,0.00120473,0.0001817,-0.00473255,0.656327,-0.0133486,0.657861,0,0
1668,-0.0606109,-2.51893,-3.59889,25.0947,711.157,-32.4526,6.53934,709.054,494.862,0,0,0.00120473,0.0001817,0.000139766,0.654384,-0.00423898,0.655663,0,0
1669,-0.0274276,-2.51894,-3.60415,25.1283,714.449,-31.1128,9.04555,712.528,507.105,0,0,0.00120473,0.0001817,0.00501207,0.652441,0.00487067,0.653465,0,0
1670,0.00575561,-2.51895,-3.6094,25.1619,717.74,-29.7729,11.5517,716.001,519.348,0,0,0.00120473,0.0001817,0.00988439,0.650498,0.0139803,0.651267,0,0
1671,0.0389389,-2.51896,-3.61465,25.1955,718.978,-27.1287,15.6787,717.262,536.134,0,0,0.00120473,0.0001817,0.0150161,0.655647,0.0219088,0.65665,0,0
1672,0.0721221,-2.51898,-3.61991,25.2291,718.653,-23.4914,21.0397,716.839,556.381,0,0,0.00120473,0.0001817,0.0203453,0.666194,0.0289379,0.667806,0,0
1673,0.105305,-2.51899,-3.62516,25.2627,718.327,-19.8541,26.4006,716.416,576.628,0,0,0.00120473,0.0001817,0.0256745,0.676742,0.0359671,0.678962,0,0
1674,0.138489,-2.519,-3.63042,25.2963,718.002,-16.2167,31.7615,715.992,596.874,0,0,0.00120473,0.0001817,0.0310037,0.68729,0.0429963,0.690117,0,0
1675,0.171672,-2.51901,-3.63567,25.3298,717.676,-12.5794,37.1224,715.569,617.12,0,0,0.00120473,0.0001817,0.0363329,0.697838,0.0500254,0.701273,0,0
1676,0.204855,-2.51902,-3.64093,25.3634,717.196,-8.93002,42.534,714.997,637.445,0,0,0.00120473,0.0001817,0.0416308,0.708136,0.0569794,0.712173,0,0
1677,0.238038,-2.51903,-3.64618,25.397,724.92,-1.82586,46.6697,722.395,652.032,0,0,0.00120473,0.0001817,0.0450328,0.719779,0.064591,0.724459,0,0
1678,0.271222,-2.51904,-3.65144,25.4306,742.501,8.25282,47.8513,739.418,662.018,0,0,0.00120473,0.0001817,0.0468221,0.725821,0.0720043,0.731223,0,0
1679,0.304405,-2.51905,-3.65669,25.4642,761.935,18.3955,49.4016,758.366,671.538,0,0,0.00120473,0.0001817,0.0483626,0.73203,0.0788061,0.738083,0,0
1680,0.337588,-2.51906,-3.66194,25.4978,793.134,29.6038,50.9456,789.048,675.258,0,0,0.00120473,0.0001817,0.0485929,0.735828,0.088696,0.743588,0,0
1681,0.370771,-2.51907,-3.6672,25.5314,827.018,40.5472,53.1697,822.244,679.411,0,0,0.00120473,0.0001817,0.048843,0.737673,0.100495,0.7476,0,0
1682,0.38126,-2.51907,-3.67841,25.5468,842.126,46.6737,49.9862,837.102,680.104,0,0,0.00120473,0.0001817,0.0478781,0.738976,0.103934,0.749377,0,0
1683,0.391748,-2.51906,-3.68962,25.5621,857.538,52.769,46.8834,852.247,680.836,0,0,0.00120473,0.0001817,0.0469162,0.740287,0.107539,0.751203,0,0
1684,0.402236,-2.51906,-3.70083,25.5775,874.061,58.7507,44.0758,868.438,681.709,0,0,0.00120473,0.0001817,0.0459656,0.741635,0.111752,0.753207,0,0
1685,0.412724,-2.51905,-3.71204,25.5928,890.584,64.7324,41.2682,884.63,682.582,0,0,0.00120473,0.0001817,0.0450149,0.742983,0.115964,0.75521,0,0
1686,0.423213,-2.51905,-3.72325,25.6082,907.107,70.7141,38.4606,900.821,683.455,0,0,0.00120473,0.0001817,0.0440642,0.74433,0.120176,0.757214,0,0
1687,0.433701,-2.51904,-3.73446,25.6235,923.63,76.6957,35.653,917.012,684.328,0,0,0.00120473,0.0001817,0.0431136,0.745678,0.124388,0.759218,0,0
1688,0.444189,-2.51904,-3.74567,25.6389,940.153,82.6775,32.8453,933.203,685.201,0,0,0.00120473,0.0001817,0.0421629,0.747025,0.1286,0.761222,0,0
1689,0.454677,-2.51903,-3.75688,25.6542,956.676,88.6591,30.0378,949.394,686.075,0,0,0.00120473,0.0001817,0.0412122,0.748373,0.132813,0.763226,0,0
1690,0.465166,-2.51903,-3.7681,25.6696,973.2,94.6408,27.2302,965.586,686.948,0,0,0.00120473,0.0001817,0.0402615,0.749721,0.137025,0.76523,0,0
1691,0.475654,-2.51903,-3.77931,25.6849,989.722,100.622,24.4226,981.777,687.821,0,0,0.00120473,0.0001817,0.0393109,0.751068,0.141237,0.767234,0,0
1692,0.486142,-2.51902,-3.79052,25.7003,1006.24,106.604,21.615,997.968,688.694,0,0,0.00120473,0.0001817,0.0383602,0.752416,0.145449,0.769238,0,0
1693,0.49663,-2.51902,-3.80173,25.7157,1022.77,112.586,18.8074,1014.16,689.567,0,0,0.00120473,0.0001817,0.0374095,0.753763,0.149661,0.771242,0,0
1694,0.507118,-2.51901,-3.81294,25.731,1039.29,118.567,15.9998,1030.35,690.44,0,0,0.00120473,0.0001817,0.0364589,0.755111,0.153874,0.773245,0,0
1695,0.517607,-2.51901,-3.82415,25.7464,1055.81,124.549,13.1922,1046.54,691.313,0,0,0.00120473,0.0001817,0.0355082,0.756459,0.158086,0.775249,0,0
1696,0.528095,-2.519,-3.83536,25.7617,1072.34,130.531,10.3845,1062.73,692.186,0,0,0.00120473,0.0001817,0.0345575,0.757806,0.162298,0.777253,0,0
1697,0.538583,-2.519,-3.84657,25.7771,1088.86,136.513,7.57698,1078.92,693.059,0,0,0.00120473,0.0001817,0.0336069,0.759154,0.16651,0.779257,0,0
1698,0.549071,-2.51899,-3.85778,25.7924,1105.3,142.431,4.73907,1095.03,693.808,0,0,0.00120473,0.0001817,0.0326062,0.760297,0.171087,0.781176,0,0
1699,0.55956,-2.51899,-3.86899,25.8078,1118.59,146.087,0.816733,1108.05,690.106,0,0,0.00120473,0.0001817,0.0298147,0.754126,0.188707,0.780063,0,0
1700,0.570048,-2.51899,-3.8802,25.8231,1131.89,149.743,-3.1055,1121.08,686.405,0,0,0.00120473,0.0001817,0.0270232,0.747956,0.206327,0.77895,0,0
1701,0.580536,-2.51898,-3.89141,25.8385,1146.38,156.018,-10.0769,1134.14,670.696,0,0,0.00120473,0.0001817,0.0232703,0.748172,0.216755,0.781903,0,0
1702,0.565461,-2.51898,-3.88785,25.854,1132.79,149.929,-6.40742,1121.92,684.779,0,0,0.00120473,0.0001817,0.0257745,0.747091,0.208036,0.778664,0,0
1703,0.550387,-2.51897,-3.88429,25.8694,1120.39,146.459,-5.78709,1109.74,686.855,0,0,0.00120473,0.0001817,0.0273173,0.752397,0.192125,0.779491,0,0
1704,0.535312,-2.51897,-3.88073,25.8849,1108,142.989,-5.16668,1097.56,688.931,0,0,0.00120473,0.0001817,0.0288601,0.757702,0.176214,0.780319,0,0
1705,0.520238,-2.51897,-3.87717,25.9004,1094.72,138.882,-4.85158,1084.52,689.755,0,0,0.00120473,0.0001817,0.0298989,0.760949,0.163974,0.780293,0,0
1706,0.505163,-2.51896,-3.8736,25.9159,1079.66,133.493,-5.15108,1069.72,688.055,0,0,0.00120473,0.0001817,0.0299225,0.76005,0.159128,0.778548,0,0
1707,0.490088,-2.51896,-3.87004,25.9314,1064.6,128.103,-5.45057,1054.93,686.356,0,0,0.00120473,0.0001817,0.0299462,0.759151,0.154282,0.776803,0,0
1708,0.475014,-2.51896,-3.86648,25.9469,1049.54,122.714,-5.75015,1040.14,684.657,0,0,0.00120473,0.0001817,0.0299699,0.758253,0.149435,0.775058,0,0
1709,0.459939,-2.51895,-3.86292,25.9624,1034.48,117.325,-6.04964,1025.34,682.958,0,0,0.00120473,0.0001817,0.0299936,0.757354,0.144589,0.773313,0,0
1710,0.444864,-2.51895,-3.85935,25.9779,1019.42,111.936,-6.34921,1010.55,681.258,0,0,0.00120473,0.0001817,0.0300172,0.756455,0.139743,0.771568,0,0
1711,0.42979,-2.51894,-3.85579,25.9934,1004.36,106.546,-6.64872,995.756,679.559,0,0,0.00120473,0.0001817,0.0300409,0.755556,0.134896,0.769824,0,0
1712,0.414715,-2.51894,-3.85223,26.0089,989.301,101.157,-6.94822,980.963,677.86,0,0,0.00120473,0.0001817,0.0300646,0.754658,0.13005,0.768079,0,0
1713,0.39964,-2.51894,-3.84867,26.0243,974.242,95.7677,-7.24779,966.169,676.161,0,0,0.00120473,0.0001817,0.0300882,0.753759,0.125204,0.766334,0,0
1714,0.384566,-2.51893,-3.8451,26.0398,959.183,90.3784,-7.54729,951.376,674.462,0,0,0.00120473,0.0001817,0.0301119,0.75286,0.120358,0.764589,0,0
1715,0.369491,-2.51893,-3.84154,26.0553,944.124,84.9891,-7.84686,936.583,672.762,0,0,0.00120473,0.0001817,0.0301356,0.751961,0.115511,0.762844,0,0
1716,0.354416,-2.51892,-3.83798,26.0708,929.065,79.5998,-8.14635,921.789,671.063,0,0,0.00120473,0.0001817,0.0301592,0.751063,0.110665,0.761099,0,0
1717,0.339342,-2.51892,-3.83442,26.0863,914.336,73.7387,-8.08288,907.429,669.309,0,0,0.00120473,0.0001817,0.0300678,0.748247,0.104782,0.757257,0,0
1718,0.324267,-2.51892,-3.83085,26.1018,899.731,67.7015,-7.88396,893.23,667.534,0,0,0.00120473,0.0001817,0.0299333,0.744716,0.0985117,0.752631,0,0
1719,0.309193,-2.51891,-3.82729,26.1173,887.098,62.5542,-7.47762,880.932,666.057,0,0,0.00120473,0.0001817,0.0296549,0.742002,0.0932239,0.749067,0,0
1720,0.294118,-2.51891,-3.82373,26.1328,878.642,58.2121,-7.10615,872.734,663.036,0,0,0.00120473,0.0001817,0.0289691,0.738856,0.0897229,0.745578,0,0
1721,0.279043,-2.51891,-3.82017,26.1483,870.176,53.2789,-6.99311,864.567,658.831,0,0,0.00120473,0.0001817,0.0282284,0.734534,0.0860574,0.740905,0,0
1722,0.266859,-2.5189,-3.81555,26.1613,862.043,48.8514,-6.33838,856.699,655.481,0,0,0.00120473,0.0001817,0.0278285,0.731009,0.0829733,0.737088,0,0
1723,0.254675,-2.5189,-3.81094,26.1743,853.91,44.424,-5.68372,848.831,652.132,0,0,0.00120473,0.0001817,0.0274285,0.727484,0.0798893,0.733271,0,0
1724,0.242491,-2.5189,-3.80633,26.1874,845.776,39.9966,-5.02899,840.964,648.782,0,0,0.00120473,0.0001817,0.0270286,0.723958,0.0768053,0.729454,0,0
1725,0.230307,-2.5189,-3.80171,26.2004,837.643,35.5692,-4.37434,833.096,645.432,0,0,0.00120473,0.0001817,0.0266286,0.720433,0.0737213,0.725637,0,0
1726,0.218123,-2.5189,-3.7971,26.2134,829.51,31.1417,-3.7196,825.228,642.082,0,0,0.00120473,0.0001817,0.0262287,0.716908,0.0706373,0.72182,0,0
1727,0.205939,-2.5189,-3.79248,26.2264,821.377,26.7143,-3.06495,817.361,638.732,0,0,0.00120473,0.0001817,0.0258287,0.713382,0.0675532,0.718003,0,0
1728,0.193754,-2.51889,-3.78787,26.2395,813.244,22.2869,-2.41022,809.493,635.382,0,0,0.00120473,0.0001817,0.0254288,0.709857,0.0644692,0.714186,0,0
1729,0.18157,-2.51889,-3.78326,26.2525,805.111,17.8595,-1.75556,801.625,632.033,0,0,0.00120473,0.0001817,0.0250288,0.706332,0.0613852,0.710369,0,0
1730,0.169386,-2.51889,-3.77864,26.2655,796.977,13.432,-1.10083,793.758,628.683,0,0,0.00120473,0.0001817,0.0246289,0.702807,0.0583012,0.706552,0,0
1731,0.157202,-2.51889,-3.77403,26.2786,788.844,9.00463,-0.446178,785.89,625.333,0,0,0.00120473,0.0001817,0.0242289,0.699281,0.0552171,0.702735,0,0
1732,0.145018,-2.51889,-3.76941,26.2916,780.711,4.57718,0.208554,778.022,621.983,0,0,0.00120473,0.0001817,0.023829,0.695756,0.0521331,0.698918,0,0
1733,0.132834,-2.51889,-3.7648,26.3046,772.578,0.149723,0.863286,770.154,618.633,0,0,0.00120473,0.0001817,0.023429,0.692231,0.0490491,0.695101,0,0
1734,0.12065,-2.51888,-3.76019,26.3176,764.445,-4.27767,1.51794,762.287,615.284,0,0,0.00120473,0.0001817,0.0230291,0.688706,0.0459651,0.691284,0,0
1735,0.108466,-2.51888,-3.75557,26.3307,756.312,-8.70512,2.17267,754.419,611.934,0,0,0.00120473,0.0001817,0.0226291,0.68518,0.042881,0.687467,0,0
1736,0.0962815,-2.51888,-3.75096,26.3437,748.178,-13.1325,2.82733,746.552,608.584,0,0,0.00120473,0.0001817,0.0222292,0.681655,0.039797,0.68365,0,0
1737,0.0840974,-2.51888,-3.74634,26.3567,740.045,-17.56,3.48206,738.684,605.234,0,0,0.00120473,0.0001817,0.0218292,0.67813,0.036713,0.679833,0,0
1738,0.0719132,-2.51888,-3.74173,26.3697,731.912,-21.9874,4.13671,730.816,601.884,0,0,0.00120473,0.0001817,0.0214293,0.674604,0.033629,0.676016,0,0
1739,0.0597291,-2.51888,-3.73712,26.3828,723.779,-26.4148,4.79145,722.948,598.534,0,0,0.00120473,0.0001817,0.0210293,0.671079,0.0305449,0.672199,0,0
1740,0.047545,-2.51887,-3.7325,26.3958,717.167,-28.9984,6.19387,716.526,594.664,0,0,0.00120473,0.0001817,0.0204657,0.666147,0.0287794,0.66711,0,0
1741,0.0353609,-2.51887,-3.72789,26.4088,716.731,-28.8295,6.51095,716.096,586.12,0,0,0.00120473,0.0001817,0.0194511,0.657736,0.0286369,0.658707,0,0
1742,0.0309234,-2.51887,-3.72695,26.4134,716.618,-28.6762,6.58585,715.987,583.442,0,0,0.00120473,0.0001817,0.0190274,0.654912,0.0286053,0.655886,0,0
1743,0.0264858,-2.51887,-3.72602,26.4179,716.506,-28.523,6.66075,715.878,580.764,0,0,0.00120473,0.0001817,0.0186038,0.652088,0.0285737,0.653064,0,0
1744,0.0220483,-2.51887,-3.72508,26.4224,716.394,-28.3697,6.73565,715.769,578.085,0,0,0.00120473,0.0001817,0.0181801,0.649264,0.0285421,0.650243,0,0
1745,0.0176108,-2.51887,-3.72415,26.427,716.281,-28.2165,6.81056,715.661,575.407,0,0,0.00120473,0.0001817,0.0177564,0.646439,0.0285104,0.647422,0,0
1746,0.0131733,-2.51887,-3.72321,26.4315,716.17,-28.0632,6.88546,715.553,572.728,0,0,0.00120473,0.0001817,0.0173328,0.643615,0.0284788,0.644601,0,0
1747,0.00873574,-2.51886,-3.72228,26.436,715.795,-28.2573,6.60165,715.164,570.637,0,0,0.00120473,0.0001817,0.0168325,0.642711,0.0276095,0.643722,0,0
1748,0.00429822,-2.51886,-3.72134,26.4406,715.29,-28.6223,6.14146,714.637,568.834,0,0,0.00120473,0.0001817,0.0162946,0.64275,0.0263284,0.643799,0,0
1749,-0.000139308,-2.51886,-3.72041,26.4451,714.785,-28.9872,5.68128,714.11,567.032,0,0,0.00120473,0.0001817,0.0157567,0.642789,0.0250473,0.643876,0,0
1750,-0.00457683,-2.51886,-3.71948,26.4496,714.281,-29.3521,5.22109,713.583,565.229,0,0,0.00120473,0.0001817,0.0152188,0.642829,0.0237661,0.643954,0,0
1751,-0.00901436,-2.51886,-3.71854,26.4542,713.776,-29.7171,4.7609,713.056,563.426,0,0,0.00120473,0.0001817,0.0146809,0.642868,0.022485,0.644031,0,0
1752,-0.0134519,-2.51886,-3.71761,26.4587,713.272,-30.082,4.30072,712.53,561.624,0,0,0.00120473,0.0001817,0.014143,0.642908,0.0212038,0.644108,0,0
1753,-0.0178894,-2.51886,-3.71667,26.4633,712.767,-30.4469,3.84054,712.003,559.821,0,0,0.00120473,0.0001817,0.0136051,0.642947,0.0199227,0.644185,0,0
1754,-0.0223269,-2.51886,-3.71574,26.4678,712.348,-30.7916,3.25539,711.554,558.126,0,0,0.00120473,0.0001817,0.0129912,0.643221,0.0185301,0.644495,0,0
1755,-0.0267644,-2.51886,-3.7148,26.4723,712.005,-31.1184,2.55979,711.174,556.526,0,0,0.00120473,0.0001817,0.0123101,0.643702,0.017039,0.645011,0,0
1756,-0.031202,-2.51885,-3.71387,26.4769,711.662,-31.4451,1.86415,710.795,554.927,0,0,0.00120473,0.0001817,0.0116289,0.644184,0.0155479,0.645527,0,0
1757,-0.0356395,-2.51885,-3.71293,26.4814,711.32,-31.7719,1.16856,710.416,553.327,0,0,0.00120473,0.0001817,0.0109478,0.644665,0.0140568,0.646044,0,0
1758,-0.040077,-2.51885,-3.712,26.4859,710.977,-32.0987,0.472914,710.036,551.727,0,0,0.00120473,0.0001817,0.0102667,0.645147,0.0125656,0.64656,0,0
1759,-0.0445145,-2.51885,-3.71106,26.4905,710.634,-32.4254,-0.222683,709.656,550.128,0,0,0.00120473,0.0001817,0.00958555,0.645628,0.0110746,0.647076,0,0
1760,-0.0489521,-2.51885,-3.71013,26.495,710.291,-32.7522,-0.918328,709.277,548.528,0,0,0.00120473,0.0001817,0.0089044,0.646109,0.00958343,0.647592,0,0
1761,-0.0533896,-2.51885,-3.70919,26.4995,709.948,-33.0789,-1.61392,708.897,546.928,0,0,0.00120473,0.0001817,0.00822328,0.646591,0.00809235,0.648108,0,0
,,,,,,,,Real,51.92991836,,,,,,,,,,
,,,,,,,,Meas,73.844,,,,,,,,,,
,,,,,,,,Error,42.19933776,,,,,,,,,,
