Analysis: Scenario 1,,,,,,,,,,,,,,,,,,,,,,,
Length Units,centimeter,,,,,,,,,,,,,,,,,,,,,,
0, x, y, z, x-axis value,(1) Velocity Magnitude(cm/s),(2) Vx-Velocity(cm/s),(3) Vy-Velocity(cm/s),(4) Vz-Velocity(cm/s),(5) Static Pressure(dyne/cm2),(6) Temperature(Celsius),(7) Scalar variable(),(8) Density(g/cm3),(9) Viscosity(poise),(10) Shear Stress XY (Tau-XY)(dyne/cm2),(11) Shear Stress YZ (Tau-YZ)(dyne/cm2),(12) Shear Stress ZX (Tau-ZX)(dyne/cm2),(13) Shear Stress (Tau) Magnitude(dyne/cm2),(14) Wall Film Coefficients(W/cm2/K),(15) Wall Heat Flux(W/cm2),(16) Absolute Pressure(dyne/cm2),(17) Total Pressure(dyne/cm2),(18) Total Temperature(Celsius),(19) Mach Number()
1,0.122964,-2.47886,-3.92426,0,1551.2,2.56586,-51.1107,1548.42,149.698,0,0,0.00120473,0.0001817,0.0495573,1.65743,0.000568094,1.6589,0,0,1.01E+06,1.02E+06,0.137067,0.0468192
2,0.128733,-2.47878,-3.91143,0.0140663,1554.99,6.11858,-50.7446,1552.69,164.641,0,0,0.00120473,0.0001817,0.0505638,1.68266,-0.00051721,1.68403,0,0,1.01E+06,1.02E+06,0.13417,0.0469335
3,0.134503,-2.4787,-3.8986,0.0281327,1558.78,9.67134,-50.3785,1556.96,179.583,0,0,0.00120473,0.0001817,0.0515702,1.7079,-0.00160253,1.70915,0,0,1.01E+06,1.02E+06,0.131273,0.0470479
4,0.140272,-2.47862,-3.88578,0.042199,1562.56,13.2241,-50.0124,1561.23,194.526,0,0,0.00120473,0.0001817,0.0525767,1.73313,-0.00268784,1.73427,0,0,1.01E+06,1.02E+06,0.128376,0.0471622
5,0.146042,-2.47854,-3.87295,0.0562654,1565.26,16.5369,-49.2963,1564.37,209.173,0,0,0.00120473,0.0001817,0.0534378,1.75413,-0.00281713,1.75527,0,0,1.01E+06,1.01E+06,0.125619,0.0472437
6,0.151811,-2.47846,-3.86012,0.0703317,1548.34,17.6256,-45.0208,1547.55,220.872,0,0,0.00120473,0.0001817,0.0535062,1.73912,0.00269692,1.74109,0,0,1.01E+06,1.01E+06,0.122827,0.0467328
7,0.15758,-2.47838,-3.84729,0.084398,1535.13,18.8336,-41.0259,1534.44,232.153,0,0,0.00120473,0.0001817,0.0530842,1.72622,0.00896876,1.72905,0,0,1.01E+06,1.01E+06,0.120607,0.0463343
8,0.16335,-2.4783,-3.83446,0.0984644,1541.15,20.6571,-38.4777,1540.47,241.277,0,0,0.00120473,0.0001817,0.0501308,1.72421,0.0191512,1.72804,0,0,1.01E+06,1.01E+06,0.12134,0.0465159
9,0.169119,-2.47822,-3.82163,0.112531,1549.23,22.6583,-36.2078,1548.54,249.947,0,0,0.00120473,0.0001817,0.0474211,1.72167,0.0315165,1.72658,0,0,1.01E+06,1.01E+06,0.122674,0.0467597
10,0.174889,-2.47813,-3.80881,0.126597,1549.14,24.9648,-33.5907,1548.45,261.198,0,0,0.00120473,0.0001817,0.0427868,1.70174,0.044931,1.70736,0,0,1.01E+06,1.02E+06,0.123365,0.046757
11,0.180658,-2.47805,-3.79598,0.140663,1549.05,27.2713,-30.9735,1548.36,272.45,0,0,0.00120473,0.0001817,0.0381524,1.68181,0.0583456,1.68813,0,0,1.01E+06,1.02E+06,0.124057,0.0467543
12,0.186428,-2.47797,-3.78315,0.15473,1548.96,29.5778,-28.3564,1548.26,283.701,0,0,0.00120473,0.0001817,0.0335181,1.66189,0.0717601,1.6689,0,0,1.01E+06,1.02E+06,0.124749,0.0467515
13,0.192197,-2.47789,-3.77032,0.168796,1548.87,31.8843,-25.7392,1548.17,294.952,0,0,0.00120473,0.0001817,0.0288838,1.64196,0.0851746,1.64967,0,0,1.01E+06,1.02E+06,0.125441,0.0467488
14,0.197967,-2.47781,-3.75749,0.182862,1548.77,34.1909,-23.1221,1548.07,306.203,0,0,0.00120473,0.0001817,0.0242494,1.62203,0.0985892,1.63044,0,0,1.01E+06,1.02E+06,0.126132,0.046746
15,0.203736,-2.47773,-3.74466,0.196929,1548.68,36.4974,-20.5049,1547.98,317.454,0,0,0.00120473,0.0001817,0.0196151,1.6021,0.112004,1.61121,0,0,1.01E+06,1.02E+06,0.126824,0.0467433
16,0.209506,-2.47765,-3.73184,0.210995,1548.59,38.8039,-17.8879,1547.88,328.705,0,0,0.00120473,0.0001817,0.0149809,1.58218,0.125418,1.59198,0,0,1.01E+06,1.02E+06,0.127515,0.0467405
17,0.215275,-2.47757,-3.71901,0.225061,1548.5,41.1104,-15.2707,1547.79,339.956,0,0,0.00120473,0.0001817,0.0103465,1.56225,0.138833,1.57275,0,0,1.01E+06,1.02E+06,0.128207,0.0467378
18,0.221045,-2.47749,-3.70618,0.239128,1548.41,43.417,-12.6536,1547.69,351.208,0,0,0.00120473,0.0001817,0.0057122,1.54232,0.152247,1.55352,0,0,1.01E+06,1.02E+06,0.128899,0.046735
19,0.226814,-2.47741,-3.69335,0.253194,1547.37,45.0213,-8.55912,1546.42,361.661,0,0,0.00120473,0.0001817,-0.000539604,1.49604,0.151215,1.50878,0,0,1.01E+06,1.02E+06,0.131758,0.0467035
20,0.232583,-2.47732,-3.68052,0.26726,1537.56,46.19,-3.94775,1536.25,371.877,0,0,0.00120473,0.0001817,-0.00802654,1.43793,0.142249,1.45249,0,0,1.01E+06,1.02E+06,0.134875,0.0464077
21,0.238353,-2.47724,-3.66769,0.281327,1527.76,47.3587,0.663531,1526.09,382.094,0,0,0.00120473,0.0001817,-0.0155134,1.37982,0.133284,1.39619,0,0,1.01E+06,1.02E+06,0.137992,0.0461119
22,0.228306,-2.47773,-3.65631,0.296521,1513.39,48.0496,5.17718,1511.87,396.099,0,0,0.00120473,0.0001817,-0.0177126,1.38503,0.132244,1.40029,0,0,1.01E+06,1.02E+06,0.133127,0.045678
23,0.218259,-2.47822,-3.64492,0.311715,1499.01,48.7404,9.69087,1497.64,410.104,0,0,0.00120473,0.0001817,-0.019912,1.39024,0.131203,1.40439,0,0,1.01E+06,1.02E+06,0.128262,0.045244
24,0.208211,-2.47871,-3.63353,0.326909,1496.5,49.8578,9.8417,1495.04,430.431,0,0,0.00120473,0.0001817,-0.0238675,1.38694,0.132291,1.40046,0,0,1.01E+06,1.02E+06,0.124787,0.0451681
25,0.198164,-2.4792,-3.62214,0.342103,1455.27,49.2916,15.6667,1453.47,436.305,0,0,0.00120473,0.0001817,-0.027495,1.42332,0.129414,1.43612,0,0,1.01E+06,1.02E+06,0.117775,0.0439237
26,0.188117,-2.47968,-3.61076,0.357297,1414.04,48.7254,21.4919,1411.91,442.179,0,0,0.00120473,0.0001817,-0.0311222,1.4597,0.126539,1.47179,0,0,1.01E+06,1.02E+06,0.110763,0.0426793
27,0.17807,-2.48017,-3.59937,0.372491,1372.81,48.1591,27.3169,1370.35,448.053,0,0,0.00120473,0.0001817,-0.0347495,1.49609,0.123663,1.50746,0,0,1.01E+06,1.01E+06,0.103751,0.0414349
28,0.168023,-2.48066,-3.58798,0.387685,1331.58,47.5929,33.1421,1328.79,453.926,0,0,0.00120473,0.0001817,-0.0383768,1.53247,0.120787,1.54313,0,0,1.01E+06,1.01E+06,0.0967387,0.0401905
29,0.157976,-2.48115,-3.57659,0.402879,1306.84,47.0561,39.8706,1304.01,463.785,0,0,0.00120473,0.0001817,-0.0426454,1.52288,0.119139,1.53327,0,0,1.01E+06,1.01E+06,0.0935331,0.0394437
30,0.147929,-2.48164,-3.56521,0.418073,1291.93,46.5369,47.1383,1289.24,476.02,0,0,0.00120473,0.0001817,-0.0472966,1.48587,0.118223,1.49625,0,0,1.01E+06,1.01E+06,0.0925987,0.0389939
31,0.137881,-2.48212,-3.55382,0.433267,1277.03,46.0177,54.406,1274.47,488.256,0,0,0.00120473,0.0001817,-0.0519477,1.44886,0.117308,1.45923,0,0,1.01E+06,1.01E+06,0.0916644,0.038544
32,0.127834,-2.48261,-3.54243,0.448461,1257.19,45.3193,60.0605,1254.66,502.513,0,0,0.00120473,0.0001817,-0.0578503,1.40541,0.11234,1.41589,0,0,1.01E+06,1.01E+06,0.0907155,0.0379452
33,0.117787,-2.4831,-3.53104,0.463655,1242.28,43.4893,64.9444,1239.62,515.449,0,0,0.00120473,0.0001817,-0.0618977,1.38008,0.103105,1.39074,0,0,1.01E+06,1.01E+06,0.0897402,0.0374951
34,0.10774,-2.48359,-3.51966,0.478849,1224.84,38.8149,62.7644,1222.26,542.738,0,0,0.00120473,0.0001817,-0.0599447,1.36284,0.0883871,1.3733,0,0,1.01E+06,1.01E+06,0.0891683,0.0369687
35,0.0976929,-2.48408,-3.50827,0.494043,1207.4,34.1404,60.5846,1204.9,570.028,0,0,0.00120473,0.0001817,-0.0579916,1.3456,0.0736694,1.35587,0,0,1.01E+06,1.01E+06,0.0885968,0.0364424
36,0.0876458,-2.48457,-3.49688,0.509237,1198.09,30.1783,62.0523,1195.46,587.276,0,0,0.00120473,0.0001817,-0.0555763,1.31438,0.0584356,1.32384,0,0,1.01E+06,1.01E+06,0.0888225,0.0361614
37,0.0775986,-2.48505,-3.48549,0.524431,1196.07,26.8545,66.7896,1193.12,595.524,0,0,0.00120473,0.0001817,-0.0527467,1.27064,0.0427398,1.27873,0,0,1.01E+06,1.01E+06,0.0897634,0.0361005
38,0.0675515,-2.48554,-3.47411,0.539625,1194.05,23.5307,71.5268,1190.77,603.773,0,0,0.00120473,0.0001817,-0.0499171,1.22689,0.0270438,1.23362,0,0,1.01E+06,1.01E+06,0.0907041,0.0360395
39,0.0575044,-2.48603,-3.46272,0.554819,1193.53,22.3018,80.9828,1183.09,622.436,0,0,0.00120473,0.0001817,-0.0488409,1.29004,0.0182156,1.29635,0,0,1.01E+06,1.01E+06,0.0903851,0.0360238
40,0.0474572,-2.48652,-3.45133,0.570013,1192.3,21.5258,102.81,1172.05,647.275,0,0,0.00120473,0.0001817,-0.0455441,1.51234,0.0152543,1.51854,0,0,1.01E+06,1.01E+06,0.0874811,0.0359867
41,0.0374101,-2.48701,-3.43994,0.585207,1188.64,19.1653,136.479,1162.45,668.916,0,0,0.00120473,0.0001817,-0.0372606,1.83459,0.0130412,1.84006,0,0,1.01E+06,1.01E+06,0.0824167,0.0358762
42,0.0255211,-2.48742,-3.4425,0.597374,1180.22,13.7881,117.294,1156.69,659.126,0,0,0.00120473,0.0001817,-0.039428,1.60292,-0.0167348,1.60696,0,0,1.01E+06,1.01E+06,0.0848179,0.035622
43,0.013632,-2.48783,-3.44506,0.609542,1166.94,10.673,104.572,1148.37,657.011,0,0,0.00120473,0.0001817,-0.0319491,1.47079,-0.0199102,1.47358,0,0,1.01E+06,1.01E+06,0.0848016,0.0352212
44,0.00174304,-2.48824,-3.44761,0.621709,1151.54,9.08833,95.0572,1137.83,659.911,0,0,0.00120473,0.0001817,-0.0205048,1.40221,-0.00692354,1.40416,0,0,1.01E+06,1.01E+06,0.0833735,0.0347564
45,-0.010146,-2.48866,-3.45017,0.633877,1137.93,7.54806,87.323,1128.28,660.249,0,0,0.00120473,0.0001817,-0.0108653,1.34702,0.00509919,1.34825,0,0,1.01E+06,1.01E+06,0.0817022,0.0343456
46,-0.022035,-2.48907,-3.45272,0.646045,1126.74,5.88849,81.5584,1120.13,658.599,0,0,0.00120473,0.0001817,-0.00331114,1.30783,0.0148422,1.30853,0,0,1.01E+06,1.01E+06,0.0799197,0.034008
47,-0.033924,-2.48948,-3.45528,0.658212,1126.58,1.44208,79.9512,1119.7,665.721,0,0,0.00120473,0.0001817,-0.00072798,1.31996,0.0022602,1.32149,0,0,1.01E+06,1.01E+06,0.0801885,0.034003
48,-0.045813,-2.4899,-3.45784,0.67038,1126.39,-2.94946,78.311,1119.26,672.637,0,0,0.00120473,0.0001817,0.00156686,1.33176,-0.0103902,1.33412,0,0,1.01E+06,1.01E+06,0.0804424,0.0339973
49,-0.057702,-2.49031,-3.46039,0.682548,1126.18,-7.28652,76.639,1118.82,679.349,0,0,0.00120473,0.0001817,0.00357517,1.34325,-0.023109,1.34643,0,0,1.01E+06,1.01E+06,0.0806818,0.033991
50,-0.069591,-2.49072,-3.46295,0.694715,1125.95,-11.5694,74.935,1118.38,685.858,0,0,0.00120473,0.0001817,0.00529852,1.35443,-0.0358957,1.35841,0,0,1.01E+06,1.01E+06,0.0809068,0.0339842
51,-0.0814801,-2.49113,-3.4655,0.706883,1125.71,-15.7985,73.2001,1117.93,692.165,0,0,0.00120473,0.0001817,0.0067385,1.3653,-0.0487503,1.37008,0,0,1.01E+06,1.01E+06,0.0811174,0.0339768
52,-0.0933691,-2.49155,-3.46806,0.719051,1125.45,-19.9742,71.4339,1117.48,698.27,0,0,0.00120473,0.0001817,0.00789687,1.37587,-0.0616719,1.38144,0,0,1.01E+06,1.01E+06,0.0813136,0.0339689
53,-0.105258,-2.49196,-3.47062,0.731218,1125.16,-24.0966,69.6371,1117.03,704.175,0,0,0.00120473,0.0001817,0.0087752,1.38614,-0.0746605,1.39248,0,0,1.01E+06,1.01E+06,0.0814956,0.0339604
54,-0.117147,-2.49237,-3.47317,0.743386,1138.52,-28.5708,70.1422,1125.49,696.223,0,0,0.00120473,0.0001817,0.0137416,1.39328,-0.0856999,1.40172,0,0,1.01E+06,1.01E+06,0.083491,0.0343635
55,-0.129036,-2.49278,-3.47573,0.755554,1162.07,-33.5941,72.5884,1140.05,678.284,0,0,0.00120473,0.0001817,0.0217372,1.40283,-0.0960599,1.41458,0,0,1.01E+06,1.01E+06,0.0864781,0.0350741
56,-0.140925,-2.4932,-3.47828,0.767721,1188.13,-39.0028,75.7179,1155.56,658.119,0,0,0.00120473,0.0001817,0.0303208,1.41744,-0.107033,1.43299,0,0,1.01E+06,1.01E+06,0.0893544,0.035861
57,-0.152814,-2.49361,-3.48084,0.779889,1210.49,-43.4223,80.5889,1167.17,639.576,0,0,0.00120473,0.0001817,0.0379794,1.46135,-0.114323,1.48158,0,0,1.01E+06,1.01E+06,0.0910975,0.0365357
58,-0.164703,-2.49402,-3.4834,0.792057,1195.71,-39.0129,93.5974,1151.52,641.183,0,0,0.00120473,0.0001817,0.0367316,1.65331,-0.0931569,1.68124,0,0,1.01E+06,1.01E+06,0.0867824,0.0360895
59,-0.176592,-2.49443,-3.48595,0.804224,1186.12,-32.0664,108.929,1137.09,646.242,0,0,0.00120473,0.0001817,-0.00718022,2.27723,0.0208183,2.31433,0,0,1.01E+06,1.01E+06,0.0831071,0.0358001
60,-0.188481,-2.49485,-3.48851,0.816392,1217.31,-39.2231,125.718,1151.65,668.73,0,0,0.00120473,0.0001817,-0.142167,3.87579,0.313702,3.92334,0,0,1.01E+06,1.01E+06,0.0821702,0.0367414
61,-0.20037,-2.49526,-3.49106,0.82856,1229.49,-48.8442,151.59,1166.42,690.915,0,0,0.00120473,0.0001817,-0.271691,5.695,0.732809,5.76669,0,0,1.01E+06,1.01E+06,0.0793108,0.0371092
62,-0.20346,-2.49526,-3.50229,0.840203,1227.03,-46.4219,117.849,1160.38,661.945,0,0,0.00120473,0.0001817,-0.17311,4.10636,0.412475,4.16659,0,0,1.01E+06,1.01E+06,0.083152,0.0370348
63,-0.206549,-2.49526,-3.51352,0.851847,1212.17,-44.5811,90.5693,1157.69,636.138,0,0,0.00120473,0.0001817,-0.0534624,2.69632,0.116132,2.74443,0,0,1.01E+06,1.01E+06,0.0860412,0.0365864
64,-0.209639,-2.49526,-3.52474,0.86349,1197.85,-43.4321,69.1271,1160.79,615.584,0,0,0.00120473,0.0001817,0.0420345,1.78239,-0.0637282,1.82168,0,0,1.01E+06,1.01E+06,0.089301,0.0361543
65,-0.212728,-2.49525,-3.53597,0.875134,1202.49,-43.0244,52.4037,1171.02,600.346,0,0,0.00120473,0.0001817,0.0516933,1.59652,-0.0502998,1.63337,0,0,1.01E+06,1.01E+06,0.0942318,0.0362942
66,-0.215818,-2.49525,-3.54719,0.886777,1205.78,-42.8447,40.1746,1183.02,585.257,0,0,0.00120473,0.0001817,0.0551653,1.44396,-0.0445054,1.47548,0,0,1.01E+06,1.02E+06,0.0985087,0.0363937
67,-0.218907,-2.49525,-3.55842,0.898421,1208.1,-42.8624,32.2517,1196.95,570.387,0,0,0.00120473,0.0001817,0.0528559,1.32189,-0.0459544,1.3454,0,0,1.01E+06,1.02E+06,0.102231,0.0364635
68,-0.221997,-2.49525,-3.56965,0.910064,1215.92,-43.5095,28.5547,1212.41,559.262,0,0,0.00120473,0.0001817,0.0475827,1.27206,-0.0520426,1.29013,0,0,1.01E+06,1.02E+06,0.104637,0.0366996
69,-0.225086,-2.49525,-3.58087,0.921708,1231.09,-44.7588,26.0748,1227.78,552.428,0,0,0.00120473,0.0001817,0.0438517,1.28345,-0.0572336,1.30161,0,0,1.01E+06,1.02E+06,0.105891,0.0371574
70,-0.228176,-2.49525,-3.5921,0.933351,1246.26,-46.0081,23.595,1243.15,545.594,0,0,0.00120473,0.0001817,0.0401207,1.29484,-0.0624246,1.31309,0,0,1.01E+06,1.02E+06,0.107144,0.0376152
71,-0.231265,-2.49525,-3.60333,0.944995,1258.16,-47.1316,21.9294,1255.27,536.978,0,0,0.00120473,0.0001817,0.0358945,1.30607,-0.0668472,1.32428,0,0,1.01E+06,1.02E+06,0.108067,0.0379746
72,-0.234354,-2.49524,-3.61455,0.956638,1254.17,-47.6423,24.2326,1251.51,519.681,0,0,0.00120473,0.0001817,0.0292547,1.3165,-0.0675249,1.334,0,0,1.01E+06,1.02E+06,0.107375,0.037854
73,-0.237444,-2.49524,-3.62578,0.968282,1250.17,-48.1529,26.5357,1247.76,502.383,0,0,0.00120473,0.0001817,0.0226149,1.32693,-0.0682025,1.34373,0,0,1.01E+06,1.02E+06,0.106683,0.0377334
74,-0.240533,-2.49524,-3.637,0.979925,1246.17,-48.6635,28.8389,1244.01,485.086,0,0,0.00120473,0.0001817,0.0159751,1.33736,-0.0688801,1.35346,0,0,1.01E+06,1.02E+06,0.105991,0.0376127
75,-0.243623,-2.49524,-3.64823,0.991569,1242.18,-49.1741,31.142,1240.25,467.789,0,0,0.00120473,0.0001817,0.00933534,1.34779,-0.0695578,1.36318,0,0,1.01E+06,1.01E+06,0.105299,0.0374921
76,-0.246712,-2.49524,-3.65946,1.00321,1246.36,-49.0589,30.2406,1244.62,453.045,0,0,0.00120473,0.0001817,0.00492212,1.34893,-0.0681146,1.3637,0,0,1.01E+06,1.01E+06,0.106198,0.0376183
77,-0.249802,-2.49524,-3.67068,1.01486,1258.99,-48.297,26.0272,1257.37,440.94,0,0,0.00120473,0.0001817,0.00280977,1.34048,-0.0644796,1.3547,0,0,1.01E+06,1.02E+06,0.108742,0.0379996
78,-0.252891,-2.49524,-3.68191,1.0265,1271.62,-47.5351,21.8138,1270.12,428.836,0,0,0.00120473,0.0001817,0.000697426,1.33202,-0.0608446,1.34569,0,0,1.01E+06,1.02E+06,0.111286,0.0383808
79,-0.255981,-2.49523,-3.69313,1.03814,1284.25,-46.7732,17.6004,1282.87,416.731,0,0,0.00120473,0.0001817,-0.00141493,1.32356,-0.0572096,1.33669,0,0,1.01E+06,1.02E+06,0.11383,0.0387621
80,-0.25907,-2.49523,-3.70436,1.04979,1296.88,-46.0112,13.3871,1295.62,404.627,0,0,0.00120473,0.0001817,-0.00352728,1.31511,-0.0535746,1.32769,0,0,1.01E+06,1.02E+06,0.116374,0.0391434
81,-0.26216,-2.49523,-3.71559,1.06143,1309.52,-45.2493,9.17369,1308.37,392.522,0,0,0.00120473,0.0001817,-0.00563963,1.30665,-0.0499395,1.31869,0,0,1.01E+06,1.02E+06,0.118917,0.0395246
82,-0.256407,-2.49493,-3.72447,1.07202,1323.51,-43.0634,10.462,1322.44,383.179,0,0,0.00120473,0.0001817,-0.0130905,1.33506,-0.0513074,1.34609,0,0,1.01E+06,1.02E+06,0.118153,0.039947
83,-0.250655,-2.49462,-3.73335,1.0826,1332.11,-40.3081,14.3817,1331.07,370.117,0,0,0.00120473,0.0001817,-0.0241114,1.38422,-0.0539529,1.39448,0,0,1.01E+06,1.02E+06,0.116003,0.0402065
84,-0.244902,-2.49432,-3.74224,1.09319,1340.71,-37.5529,18.3014,1339.71,357.056,0,0,0.00120473,0.0001817,-0.035132,1.43338,-0.056599,1.44288,0,0,1.01E+06,1.01E+06,0.113854,0.0404661
85,-0.23915,-2.49402,-3.75112,1.10378,1349.47,-34.8387,21.815,1348.51,344.211,0,0,0.00120473,0.0001817,-0.045496,1.47765,-0.0588225,1.4864,0,0,1.01E+06,1.01E+06,0.111926,0.0407305
86,-0.233397,-2.49371,-3.76,1.11437,1360.45,-32.6794,19.8495,1359.54,334.301,0,0,0.00120473,0.0001817,-0.0469963,1.45606,-0.0553535,1.4641,0,0,1.01E+06,1.01E+06,0.112996,0.041062
87,-0.227645,-2.49341,-3.76888,1.12495,1371.44,-30.52,17.8841,1370.57,324.39,0,0,0.00120473,0.0001817,-0.0484966,1.43448,-0.0518845,1.44181,0,0,1.01E+06,1.01E+06,0.114065,0.0413935
88,-0.221892,-2.4931,-3.77777,1.13554,1382.42,-28.3606,15.9186,1381.6,314.479,0,0,0.00120473,0.0001817,-0.0499968,1.41289,-0.0484154,1.41951,0,0,1.01E+06,1.01E+06,0.115135,0.041725
89,-0.21614,-2.4928,-3.78665,1.14613,1393.41,-26.2015,13.9531,1392.64,304.569,0,0,0.00120473,0.0001817,-0.051497,1.3913,-0.0449471,1.39721,0,0,1.01E+06,1.01E+06,0.116204,0.0420566
90,-0.210387,-2.4925,-3.79553,1.15672,1404.68,-25.9068,11.4228,1403.95,290.498,0,0,0.00120473,0.0001817,-0.05346,1.4073,-0.0488259,1.41301,0,0,1.01E+06,1.01E+06,0.116556,0.0423968
91,-0.204635,-2.49219,-3.80442,1.1673,1415.95,-25.6433,8.88293,1415.26,276.357,0,0,0.00120473,0.0001817,-0.0554307,1.42394,-0.0528277,1.42945,0,0,1.01E+06,1.01E+06,0.116896,0.0427371
92,-0.198882,-2.49189,-3.8133,1.17789,1427.23,-25.3798,6.34309,1426.57,262.216,0,0,0.00120473,0.0001817,-0.0574015,1.44058,-0.0568294,1.44589,0,0,1.01E+06,1.01E+06,0.117236,0.0430774
93,-0.19313,-2.49159,-3.82218,1.18848,1438.5,-25.1163,3.80325,1437.88,248.076,0,0,0.00120473,0.0001817,-0.0593722,1.45722,-0.0608312,1.46233,0,0,1.01E+06,1.01E+06,0.117576,0.0434177
94,-0.187377,-2.49128,-3.83107,1.19906,1449.65,-24.8479,1.2625,1449.07,233.945,0,0,0.00120473,0.0001817,-0.0613454,1.47393,-0.0648122,1.47884,0,0,1.01E+06,1.01E+06,0.117906,0.0437542
95,-0.181625,-2.49098,-3.83995,1.20965,1427.2,-23.2524,-1.53082,1426.67,222.37,0,0,0.00120473,0.0001817,-0.0640043,1.50991,-0.0632652,1.51501,0,0,1.01E+06,1.01E+06,0.115393,0.0430766
96,-0.175872,-2.49067,-3.84883,1.22024,1404.75,-21.6569,-4.32413,1404.28,210.795,0,0,0.00120473,0.0001817,-0.0666632,1.54589,-0.0617182,1.55118,0,0,1.01E+06,1.01E+06,0.11288,0.042399
97,-0.17012,-2.49037,-3.85771,1.23083,1382.3,-20.0614,-7.11745,1381.88,199.219,0,0,0.00120473,0.0001817,-0.069322,1.58187,-0.0601713,1.58735,0,0,1.01E+06,1.01E+06,0.110367,0.0417214
98,-0.164367,-2.49007,-3.8666,1.24141,1359.85,-18.4659,-9.91077,1359.48,187.644,0,0,0.00120473,0.0001817,-0.0719809,1.61786,-0.0586243,1.62352,0,0,1.01E+06,1.01E+06,0.107855,0.0410438
99,-0.158615,-2.48976,-3.87548,1.252,1337.4,-16.8705,-12.704,1337.09,176.069,0,0,0.00120473,0.0001817,-0.0746397,1.65384,-0.0570777,1.65969,0,0,1.01E+06,1.01E+06,0.105342,0.0403662
100,-0.152862,-2.48946,-3.88436,1.26259,1314.95,-15.275,-15.4974,1314.69,164.494,0,0,0.00120473,0.0001817,-0.0772985,1.68982,-0.0555307,1.69586,0,0,1.01E+06,1.01E+06,0.102829,0.0396886
101,-0.14711,-2.48916,-3.89325,1.27318,1316.17,-15.2251,-18.8723,1315.85,157.178,0,0,0.00120473,0.0001817,-0.0771908,1.71313,-0.051532,1.71868,0,0,1.01E+06,1.01E+06,0.102934,0.0397255
102,-0.140591,-2.4889,-3.89471,1.27986,1327.7,-15.2976,-20.3328,1327.35,158.748,0,0,0.00120473,0.0001817,-0.0748151,1.71733,-0.0480949,1.72249,0,0,1.01E+06,1.01E+06,0.103958,0.0400734
103,-0.134072,-2.48864,-3.89618,1.28655,1352.2,-15.7267,-22.2825,1351.82,160.225,0,0,0.00120473,0.0001817,-0.0710647,1.70853,-0.0435021,1.71317,0,0,1.01E+06,1.01E+06,0.106692,0.040813
104,-0.127553,-2.48839,-3.89765,1.29324,1376.71,-16.1558,-24.2323,1376.29,161.701,0,0,0.00120473,0.0001817,-0.0673142,1.69974,-0.0389091,1.70385,0,0,1.01E+06,1.01E+06,0.109427,0.0415527
105,-0.121035,-2.48813,-3.89912,1.29992,1401.22,-16.5849,-26.1821,1400.76,163.178,0,0,0.00120473,0.0001817,-0.0635638,1.69094,-0.0343163,1.69453,0,0,1.01E+06,1.01E+06,0.112161,0.0422924
106,-0.114516,-2.48788,-3.90059,1.30661,1425.73,-17.014,-28.1319,1425.23,164.655,0,0,0.00120473,0.0001817,-0.0598133,1.68214,-0.0297233,1.68521,0,0,1.01E+06,1.01E+06,0.114896,0.0430321
107,-0.107997,-2.48762,-3.90206,1.3133,1450.23,-17.4431,-30.0818,1449.7,166.131,0,0,0.00120473,0.0001817,-0.0560628,1.67334,-0.0251303,1.67589,0,0,1.01E+06,1.01E+06,0.11763,0.0437718
108,-0.101478,-2.48736,-3.90353,1.31999,1474.74,-17.8722,-32.0315,1474.17,167.608,0,0,0.00120473,0.0001817,-0.0523124,1.66454,-0.0205375,1.66657,0,0,1.01E+06,1.01E+06,0.120364,0.0445115
109,-0.0949594,-2.48711,-3.905,1.32667,1499.25,-18.3013,-33.9814,1498.64,169.084,0,0,0.00120473,0.0001817,-0.0485619,1.65574,-0.0159445,1.65725,0,0,1.01E+06,1.01E+06,0.123099,0.0452512
110,-0.0884406,-2.48685,-3.90647,1.33336,1513.33,-18.7882,-35.298,1512.69,169.792,0,0,0.00120473,0.0001817,-0.0448861,1.6445,-0.0127459,1.64567,0,0,1.01E+06,1.01E+06,0.125094,0.0456763
111,-0.0819218,-2.4866,-3.90794,1.34005,1513.28,-19.3537,-35.7565,1512.6,169.455,0,0,0.00120473,0.0001817,-0.0413112,1.62994,-0.0114374,1.631,0,0,1.01E+06,1.01E+06,0.126086,0.0456748
112,-0.075403,-2.48634,-3.90941,1.34673,1513.23,-19.9191,-36.215,1512.5,169.119,0,0,0.00120473,0.0001817,-0.0377364,1.61538,-0.0101289,1.61634,0,0,1.01E+06,1.01E+06,0.127079,0.0456733
113,-0.0688842,-2.48609,-3.91087,1.35342,1513.19,-20.4845,-36.6735,1512.41,168.783,0,0,0.00120473,0.0001817,-0.0341616,1.60082,-0.00882045,1.60168,0,0,1.01E+06,1.01E+06,0.128071,0.0456719
114,-0.0623654,-2.48583,-3.91234,1.36011,1513.14,-21.05,-37.132,1512.32,168.446,0,0,0.00120473,0.0001817,-0.0305868,1.58626,-0.00751197,1.58701,0,0,1.01E+06,1.01E+06,0.129064,0.0456704
115,-0.0558466,-2.48557,-3.91381,1.3668,1513.09,-21.6154,-37.5904,1512.23,168.11,0,0,0.00120473,0.0001817,-0.027012,1.5717,-0.00620348,1.57235,0,0,1.01E+06,1.01E+06,0.130056,0.0456689
116,-0.0493278,-2.48532,-3.91528,1.37348,1513.04,-22.1808,-38.0489,1512.14,167.774,0,0,0.00120473,0.0001817,-0.0234371,1.55714,-0.004895,1.55769,0,0,1.01E+06,1.02E+06,0.131049,0.0456675
117,-0.042809,-2.48506,-3.91675,1.38017,1512.99,-22.7462,-38.5074,1512.04,167.438,0,0,0.00120473,0.0001817,-0.0198623,1.54259,-0.00358652,1.54302,0,0,1.01E+06,1.02E+06,0.132041,0.045666
118,-0.0362902,-2.48481,-3.91822,1.38686,1520.1,-21.6511,-37.9706,1519.19,167.755,0,0,0.00120473,0.0001817,-0.0177524,1.52038,-0.000906791,1.52074,0,0,1.01E+06,1.02E+06,0.133344,0.0458805
119,-0.0297714,-2.48455,-3.91969,1.39354,1528.49,-20.2576,-37.255,1527.63,168.189,0,0,0.00120473,0.0001817,-0.0159056,1.49679,0.00201932,1.49709,0,0,1.01E+06,1.02E+06,0.134703,0.0461339
120,-0.0232526,-2.48429,-3.92116,1.40023,1536.89,-18.8641,-36.5393,1536.07,168.623,0,0,0.00120473,0.0001817,-0.0140588,1.47321,0.0049454,1.47344,0,0,1.01E+06,1.02E+06,0.136061,0.0463872
121,-0.0167338,-2.48404,-3.92263,1.40692,1545.28,-17.4706,-35.8237,1544.52,169.057,0,0,0.00120473,0.0001817,-0.012212,1.44963,0.00787151,1.44979,0,0,1.01E+06,1.02E+06,0.13742,0.0466406
,,,,,,,,,40.08045537,,,,,,,,,,,,,,
