Analysis: Scenario 1,,,,,,,,,,,,,,,,,,,,,,,
Length Units,centimeter,,,,,,,,,,,,,,,,,,,,,,
0, x, y, z, x-axis value,(1) Velocity Magnitude(cm/s),(2) Vx-Velocity(cm/s),(3) Vy-Velocity(cm/s),(4) Vz-Velocity(cm/s),(5) Static Pressure(dyne/cm2),(6) Temperature(Celsius),(7) Scalar variable(),(8) Density(g/cm3),(9) Viscosity(poise),(10) Shear Stress XY (Tau-XY)(dyne/cm2),(11) Shear Stress YZ (Tau-YZ)(dyne/cm2),(12) Shear Stress ZX (Tau-ZX)(dyne/cm2),(13) Shear Stress (Tau) Magnitude(dyne/cm2),(14) Wall Film Coefficients(W/cm2/K),(15) Wall Heat Flux(W/cm2),(16) Absolute Pressure(dyne/cm2),(17) Total Pressure(dyne/cm2),(18) Total Temperature(Celsius),(19) Mach Number()
1,-0.110167,-2.5068,-4.01625,0,1136.33,-29.0828,-41.2715,1120.52,-7.07298,0,0,0.00120473,0.0001817,-0.0379439,1.40315,-0.0104037,1.40469,0,0,1.01E+06,1.01E+06,0.112308,0.0342973
2,-0.10078,-2.5068,-4.01657,0.00939261,1121.46,-31.8992,-43.4643,1119.52,-5.54308,0,0,0.00120473,0.0001817,-0.0333404,1.43062,-0.0106109,1.43173,0,0,1.01E+06,1.01E+06,0.110386,0.0338487
3,-0.0913925,-2.5068,-4.01688,0.0187852,1128.59,-29.9099,-42.2227,1126.71,-2.97688,0,0,0.00120473,0.0001817,-0.0308402,1.4056,-0.00649615,1.40662,0,0,1.01E+06,1.01E+06,0.111343,0.0340636
4,-0.0820052,-2.5068,-4.0172,0.0281778,1135.71,-27.9206,-40.9811,1133.91,-0.411309,0,0,0.00120473,0.0001817,-0.02834,1.38058,-0.00238133,1.3815,0,0,1.01E+06,1.01E+06,0.112301,0.0342786
5,-0.0726179,-2.5068,-4.01752,0.0375704,1142.83,-25.9314,-39.7395,1141.1,2.15489,0,0,0.00120473,0.0001817,-0.0258399,1.35556,0.00173344,1.35638,0,0,1.01E+06,1.01E+06,0.113258,0.0344935
6,-0.0632307,-2.5068,-4.01783,0.0469631,1149.95,-23.9421,-38.4978,1148.3,4.72108,0,0,0.00120473,0.0001817,-0.0233398,1.33054,0.00584822,1.33126,0,0,1.01E+06,1.01E+06,0.114215,0.0347085
7,-0.0538434,-2.5068,-4.01815,0.0563557,1157.07,-21.9528,-37.2562,1155.49,7.28665,0,0,0.00120473,0.0001817,-0.0208396,1.30552,0.00996304,1.30614,0,0,1.01E+06,1.01E+06,0.115173,0.0349234
8,-0.0444561,-2.5068,-4.01847,0.0657483,1164.19,-19.9636,-36.0146,1162.69,9.85285,0,0,0.00120473,0.0001817,-0.0183394,1.2805,0.0140778,1.28103,0,0,1.01E+06,1.01E+06,0.11613,0.0351383
9,-0.0350689,-2.5068,-4.01878,0.0751409,1171.31,-17.9743,-34.773,1169.89,12.419,0,0,0.00120473,0.0001817,-0.0158393,1.25548,0.0181926,1.25591,0,0,1.01E+06,1.01E+06,0.117088,0.0353533
10,-0.0256816,-2.5068,-4.0191,0.0845335,1173.66,-18.3713,-33.5696,1171.87,13.7313,0,0,0.00120473,0.0001817,-0.0104308,1.24612,0.0170864,1.24662,0,0,1.01E+06,1.01E+06,0.117425,0.0354241
11,-0.0162943,-2.5068,-4.01942,0.0939261,1170.06,-21.739,-32.4139,1167.35,13.4826,0,0,0.00120473,0.0001817,-0.00140154,1.25627,0.00948026,1.25705,0,0,1.01E+06,1.01E+06,0.116992,0.0353155
12,-0.00690707,-2.5068,-4.01973,0.103319,1166.46,-25.1068,-31.2581,1162.84,13.2332,0,0,0.00120473,0.0001817,0.00762776,1.26641,0.00187416,1.26748,0,0,1.01E+06,1.01E+06,0.116558,0.0352069
13,0.0024802,-2.5068,-4.02005,0.112711,1162.87,-28.4745,-30.1024,1158.33,12.9844,0,0,0.00120473,0.0001817,0.016657,1.27656,-0.00573197,1.27791,0,0,1.01E+06,1.01E+06,0.116125,0.0350983
14,0.0118675,-2.5068,-4.02037,0.122104,1159.27,-31.8423,-28.9466,1153.81,12.7357,0,0,0.00120473,0.0001817,0.0256863,1.2867,-0.0133381,1.28834,0,0,1.01E+06,1.01E+06,0.115691,0.0349897
15,0.0212547,-2.5068,-4.02068,0.131497,1155.67,-35.21,-27.7909,1149.3,12.4863,0,0,0.00120473,0.0001817,0.0347156,1.29685,-0.0209442,1.29876,0,0,1.01E+06,1.01E+06,0.115258,0.0348811
16,0.030642,-2.5068,-4.021,0.140889,1152.07,-38.5778,-26.6352,1144.79,12.2375,0,0,0.00120473,0.0001817,0.0437449,1.30699,-0.0285503,1.30919,0,0,1.01E+06,1.01E+06,0.114824,0.0347725
17,0.0400293,-2.5068,-4.02132,0.150282,1148.05,-41.2106,-25.9322,1139.96,11.7069,0,0,0.00120473,0.0001817,0.0518366,1.32078,-0.0347402,1.32323,0,0,1.01E+06,1.01E+06,0.114358,0.034651
18,0.0494165,-2.5068,-4.02163,0.159674,1141.63,-39.7228,-27.7683,1133.41,9.59593,0,0,0.00120473,0.0001817,0.0546719,1.35496,-0.0329891,1.35751,0,0,1.01E+06,1.01E+06,0.113711,0.0344573
19,0.0588038,-2.5068,-4.02195,0.169067,1135.21,-38.2351,-29.6043,1126.86,7.48497,0,0,0.00120473,0.0001817,0.0575071,1.38914,-0.0312381,1.39179,0,0,1.01E+06,1.01E+06,0.113064,0.0342635
20,0.0681911,-2.5068,-4.02227,0.17846,1128.79,-36.7474,-31.4403,1120.3,5.3734,0,0,0.00120473,0.0001817,0.0603425,1.42332,-0.0294871,1.42607,0,0,1.01E+06,1.01E+06,0.112418,0.0340697
21,0.0775784,-2.5068,-4.02258,0.187852,1122.37,-35.2596,-33.2764,1113.75,3.26244,0,0,0.00120473,0.0001817,0.0631777,1.4575,-0.027736,1.46035,0,0,1.01E+06,1.01E+06,0.111771,0.0338759
22,0.0840395,-2.5068,-4.01879,0.195346,1118.95,-33.8159,-34.6015,1110.33,6.95263,0,0,0.00120473,0.0001817,0.0642756,1.49769,-0.0260016,1.50059,0,0,1.01E+06,1.01E+06,0.110499,0.0337727
23,0.0905006,-2.5068,-4.01499,0.20284,1115.53,-32.3722,-35.9267,1106.92,10.6428,0,0,0.00120473,0.0001817,0.0653736,1.53789,-0.0242671,1.54083,0,0,1.01E+06,1.01E+06,0.109227,0.0336696
24,0.0969617,-2.5068,-4.01119,0.210334,1112.11,-30.9285,-37.2519,1103.51,14.333,0,0,0.00120473,0.0001817,0.0664715,1.57809,-0.0225327,1.58107,0,0,1.01E+06,1.01E+06,0.107956,0.0335664
25,0.103423,-2.5068,-4.0074,0.217828,1108.86,-29.4234,-38.4907,1100.27,17.9966,0,0,0.00120473,0.0001817,0.0676726,1.61583,-0.0209944,1.61885,0,0,1.01E+06,1.01E+06,0.106686,0.0334682
26,0.109884,-2.5068,-4.0036,0.225322,1107.28,-27.2843,-38.8365,1098.83,21.3848,0,0,0.00120473,0.0001817,0.0699413,1.62819,-0.0214852,1.6312,0,0,1.01E+06,1.01E+06,0.105437,0.0334205
27,0.116345,-2.5068,-3.99981,0.232816,1105.18,-25.6749,-38.5601,1096.36,24.9445,0,0,0.00120473,0.0001817,0.0724074,1.63485,-0.0228718,1.63801,0,0,1.01E+06,1.01E+06,0.10445,0.0333572
28,0.122806,-2.5068,-3.99601,0.24031,1101.28,-25.8851,-36.1473,1090.33,29.0895,0,0,0.00120473,0.0001817,0.0755519,1.6219,-0.0273339,1.62572,0,0,1.01E+06,1.01E+06,0.104364,0.0332396
29,0.129267,-2.5068,-3.99221,0.247804,1097.39,-26.0954,-33.7345,1084.29,33.2342,0,0,0.00120473,0.0001817,0.0786964,1.60895,-0.0317961,1.61343,0,0,1.01E+06,1.01E+06,0.104278,0.0331221
30,0.135728,-2.5068,-3.98842,0.255298,1093.49,-26.3057,-31.3217,1078.26,37.3792,0,0,0.00120473,0.0001817,0.0818409,1.596,-0.0362583,1.60115,0,0,1.01E+06,1.01E+06,0.104192,0.0330045
31,0.142189,-2.5068,-3.98462,0.262792,1089.6,-26.5159,-28.909,1072.22,41.5241,0,0,0.00120473,0.0001817,0.0849854,1.58305,-0.0407205,1.58886,0,0,1.01E+06,1.01E+06,0.104106,0.032887
32,0.148651,-2.5068,-3.98082,0.270286,1085.71,-26.7262,-26.4962,1066.19,45.6691,0,0,0.00120473,0.0001817,0.0881299,1.57011,-0.0451826,1.57658,0,0,1.01E+06,1.01E+06,0.104019,0.0327694
33,0.155112,-2.5068,-3.97703,0.27778,1081.81,-26.9364,-24.0834,1060.15,49.8141,0,0,0.00120473,0.0001817,0.0912744,1.55716,-0.0496448,1.56429,0,0,1.01E+06,1.01E+06,0.103933,0.0326519
34,0.161573,-2.5068,-3.97323,0.285274,1077.92,-27.1467,-21.6706,1054.12,53.9588,0,0,0.00120473,0.0001817,0.0944189,1.54421,-0.054107,1.552,0,0,1.01E+06,1.01E+06,0.103847,0.0325343
35,0.168034,-2.5068,-3.96943,0.292768,1074.02,-27.357,-19.2579,1048.09,58.1038,0,0,0.00120473,0.0001817,0.0975634,1.53126,-0.0585692,1.53972,0,0,1.01E+06,1.01E+06,0.103761,0.0324168
36,0.174495,-2.5068,-3.96564,0.300262,1070.13,-27.5672,-16.8451,1042.05,62.2488,0,0,0.00120473,0.0001817,0.100708,1.51831,-0.0630314,1.52743,0,0,1.01E+06,1.01E+06,0.103675,0.0322992
37,0.180956,-2.5068,-3.96184,0.307756,1069.47,-27.272,-14.9281,1040.71,64.6334,0,0,0.00120473,0.0001817,0.102165,1.50068,-0.0579503,1.5107,0,0,1.01E+06,1.01E+06,0.104378,0.0322795
38,0.187417,-2.5068,-3.95804,0.31525,1069.7,-26.8405,-13.1448,1040.62,66.5435,0,0,0.00120473,0.0001817,0.103166,1.48179,-0.0502961,1.49277,0,0,1.01E+06,1.01E+06,0.105294,0.0322862
39,0.193878,-2.5068,-3.95425,0.322744,1069.92,-26.409,-11.3614,1040.54,68.4533,0,0,0.00120473,0.0001817,0.104168,1.46291,-0.0426419,1.47484,0,0,1.01E+06,1.01E+06,0.106211,0.0322929
40,0.200339,-2.5068,-3.95045,0.330238,1070.14,-25.9775,-9.57811,1040.46,70.3633,0,0,0.00120473,0.0001817,0.10517,1.44402,-0.0349877,1.4569,0,0,1.01E+06,1.01E+06,0.107127,0.0322996
41,0.206801,-2.5068,-3.94665,0.337732,1070.36,-25.546,-7.79479,1040.38,72.2734,0,0,0.00120473,0.0001817,0.106172,1.42513,-0.0273335,1.43897,0,0,1.01E+06,1.01E+06,0.108043,0.0323063
42,0.211086,-2.5068,-3.9384,0.34703,1073.81,-23.8956,-6.61182,1044.39,80.3086,0,0,0.00120473,0.0001817,0.105831,1.42377,-0.0204655,1.43814,0,0,1.01E+06,1.01E+06,0.107478,0.0324105
43,0.215372,-2.5068,-3.93015,0.356329,1077.27,-22.2451,-5.42885,1048.4,88.3441,0,0,0.00120473,0.0001817,0.10549,1.42242,-0.0135974,1.43732,0,0,1.01E+06,1.01E+06,0.106913,0.0325147
44,0.219658,-2.5068,-3.9219,0.365628,1080.72,-20.5947,-4.24588,1052.42,96.3793,0,0,0.00120473,0.0001817,0.105149,1.42106,-0.00672947,1.43649,0,0,1.01E+06,1.01E+06,0.106348,0.0326189
45,0.223943,-2.5068,-3.91364,0.374927,1080.98,-18.11,-4.85777,1053.14,105.214,0,0,0.00120473,0.0001817,0.101071,1.42815,-0.00578495,1.44348,0,0,1.01E+06,1.01E+06,0.106279,0.0326269
46,0.228229,-2.5068,-3.90539,0.384225,1080.01,-15.3021,-6.1647,1052.6,114.358,0,0,0.00120473,0.0001817,0.0955458,1.4385,-0.00713418,1.4535,0,0,1.01E+06,1.01E+06,0.106403,0.0325976
47,0.232515,-2.5068,-3.89714,0.393524,1079.05,-12.4943,-7.47159,1052.06,123.501,0,0,0.00120473,0.0001817,0.0900205,1.44885,-0.00848331,1.46352,0,0,1.01E+06,1.01E+06,0.106527,0.0325684
48,0.236801,-2.5068,-3.88889,0.402823,1078.08,-9.68644,-8.77847,1051.52,132.645,0,0,0.00120473,0.0001817,0.0844952,1.45921,-0.00983244,1.47354,0,0,1.01E+06,1.01E+06,0.106651,0.0325392
49,0.241086,-2.5068,-3.88064,0.412121,1077.11,-6.87861,-10.0854,1050.98,141.789,0,0,0.00120473,0.0001817,0.07897,1.46956,-0.0111816,1.48356,0,0,1.01E+06,1.01E+06,0.106774,0.03251
50,0.245372,-2.5068,-3.87238,0.42142,1076.14,-4.07071,-11.3923,1050.43,150.933,0,0,0.00120473,0.0001817,0.0734446,1.47991,-0.0125308,1.49358,0,0,1.01E+06,1.01E+06,0.106898,0.0324807
51,0.249658,-2.5068,-3.86413,0.430719,1075.17,-1.26289,-12.6992,1049.89,160.076,0,0,0.00120473,0.0001817,0.0679193,1.49027,-0.0138799,1.5036,0,0,1.01E+06,1.01E+06,0.107022,0.0324515
52,0.253944,-2.5068,-3.85588,0.440018,1074.24,1.48738,-13.9016,1049.36,169.105,0,0,0.00120473,0.0001817,0.062508,1.50014,-0.0149951,1.51318,0,0,1.01E+06,1.01E+06,0.107154,0.0324233
53,0.258229,-2.5068,-3.84763,0.449316,1074.31,2.4853,-11.9245,1049.25,174.642,0,0,0.00120473,0.0001817,0.0605661,1.49564,-0.00898466,1.50937,0,0,1.01E+06,1.01E+06,0.107535,0.0324255
54,0.262515,-2.5068,-3.83938,0.458615,1074.38,3.48318,-9.94734,1049.13,180.178,0,0,0.00120473,0.0001817,0.0586244,1.49113,-0.00297433,1.50556,0,0,1.01E+06,1.01E+06,0.107917,0.0324277
55,0.266801,-2.5068,-3.83112,0.467914,1074.46,4.48106,-7.9702,1049.02,185.714,0,0,0.00120473,0.0001817,0.0566826,1.48663,0.00303599,1.50175,0,0,1.01E+06,1.01E+06,0.108298,0.0324299
56,0.271086,-2.5068,-3.82287,0.477213,1074.53,5.47895,-5.99307,1048.9,191.25,0,0,0.00120473,0.0001817,0.0547408,1.48212,0.00904629,1.49794,0,0,1.01E+06,1.01E+06,0.10868,0.0324321
57,0.275372,-2.5068,-3.81462,0.486511,1074.6,6.47686,-4.0159,1048.79,196.787,0,0,0.00120473,0.0001817,0.0527989,1.47761,0.0150567,1.49413,0,0,1.01E+06,1.01E+06,0.109061,0.0324343
58,0.279658,-2.5068,-3.80637,0.49581,1092.52,7.55532,-2.36047,1052.65,202.714,0,0,0.00120473,0.0001817,0.0530504,1.49672,0.0189819,1.51551,0,0,1.01E+06,1.01E+06,0.109483,0.032975
59,0.283944,-2.5068,-3.79811,0.505109,1125.43,8.56009,-1.17442,1059.33,209.395,0,0,0.00120473,0.0001817,0.0554002,1.54572,0.0210646,1.56803,0,0,1.01E+06,1.01E+06,0.109557,0.0339684
60,0.288229,-2.5068,-3.78986,0.514408,1153.48,9.35902,-0.152174,1064.26,216.521,0,0,0.00120473,0.0001817,0.0574771,1.60103,0.0235751,1.62632,0,0,1.01E+06,1.01E+06,0.109133,0.0348149
61,0.292515,-2.5068,-3.78161,0.523706,1176.94,9.96058,0.718981,1067.49,224.07,0,0,0.00120473,0.0001817,0.0592967,1.66216,0.026457,1.68994,0,0,1.01E+06,1.01E+06,0.108241,0.0355232
62,0.291515,-2.5068,-3.77273,0.53264,1164.46,13.2502,-1.99323,1070.69,236.334,0,0,0.00120473,0.0001817,0.0483841,1.63224,0.0276753,1.65873,0,0,1.01E+06,1.01E+06,0.108142,0.0351463
63,0.290514,-2.5068,-3.76386,0.541573,1157.7,17.2503,-6.23393,1076.52,250.159,0,0,0.00120473,0.0001817,0.036361,1.61205,0.0280223,1.63765,0,0,1.01E+06,1.01E+06,0.108215,0.0349423
64,0.289513,-2.5068,-3.75498,0.550506,1151.4,21.1599,-10.2145,1082.29,263.891,0,0,0.00120473,0.0001817,0.0248476,1.5925,0.0282564,1.61723,0,0,1.01E+06,1.01E+06,0.108272,0.0347522
65,0.288513,-2.5068,-3.7461,0.559439,1145.57,24.9781,-13.9328,1088,277.529,0,0,0.00120473,0.0001817,0.0138483,1.57361,0.0283758,1.59748,0,0,1.01E+06,1.01E+06,0.108314,0.0345762
66,0.287512,-2.5068,-3.73722,0.568373,1140.21,28.7043,-17.3866,1093.65,291.072,0,0,0.00120473,0.0001817,0.00336703,1.55536,0.0283786,1.57839,0,0,1.01E+06,1.01E+06,0.108342,0.0344144
67,0.286512,-2.5068,-3.72835,0.577306,1135.32,32.3378,-20.5737,1099.23,304.519,0,0,0.00120473,0.0001817,-0.00659195,1.53776,0.0282631,1.55998,0,0,1.01E+06,1.01E+06,0.108354,0.034267
68,0.285511,-2.5068,-3.71947,0.586239,1130.92,35.8777,-23.4918,1104.75,317.87,0,0,0.00120473,0.0001817,-0.0160244,1.52082,0.0280276,1.54223,0,0,1.01E+06,1.01E+06,0.108351,0.0341342
69,0.284511,-2.5068,-3.71059,0.595172,1127.24,39.1884,-25.8486,1109.6,330.909,0,0,0.00120473,0.0001817,-0.0246634,1.50506,0.0275365,1.5258,0,0,1.01E+06,1.01E+06,0.108311,0.034023
70,0.28351,-2.5068,-3.70172,0.604106,1127.91,40.1739,-22.9601,1103.96,340.279,0,0,0.00120473,0.0001817,-0.0285671,1.4991,0.0248196,1.52094,0,0,1.01E+06,1.01E+06,0.107867,0.0340433
71,0.282509,-2.5068,-3.69284,0.613039,1128.91,41.2941,-19.9362,1098.59,349.847,0,0,0.00120473,0.0001817,-0.0326303,1.49336,0.0224096,1.51633,0,0,1.01E+06,1.01E+06,0.107433,0.0340734
72,0.281509,-2.5068,-3.68396,0.621972,1130.22,42.5516,-16.7725,1093.47,359.616,0,0,0.00120473,0.0001817,-0.0368536,1.48792,0.020322,1.51202,0,0,1.01E+06,1.01E+06,0.107006,0.0341129
73,0.280508,-2.5068,-3.67509,0.630905,1131.84,43.949,-13.464,1088.63,369.592,0,0,0.00120473,0.0001817,-0.0412374,1.48283,0.0185728,1.50808,0,0,1.01E+06,1.01E+06,0.106584,0.0341618
74,0.279508,-2.5068,-3.66621,0.639839,1133.76,45.489,-10.006,1084.05,379.78,0,0,0.00120473,0.0001817,-0.0457818,1.47816,0.017179,1.50456,0,0,1.01E+06,1.01E+06,0.106164,0.0342197
75,0.278507,-2.5068,-3.65733,0.648772,1135.97,47.1743,-6.39317,1079.74,390.183,0,0,0.00120473,0.0001817,-0.0504869,1.47399,0.0161584,1.50154,0,0,1.01E+06,1.01E+06,0.105745,0.0342864
76,0.277507,-2.5068,-3.64845,0.657705,1138.45,49.0075,-2.62024,1075.72,400.807,0,0,0.00120473,0.0001817,-0.0553524,1.47038,0.0155299,1.4991,0,0,1.01E+06,1.01E+06,0.105323,0.0343615
77,0.276506,-2.5068,-3.63958,0.666638,1141.21,50.9914,1.3184,1071.97,411.656,0,0,0.00120473,0.0001817,-0.060378,1.46742,0.0153134,1.49731,0,0,1.01E+06,1.01E+06,0.104896,0.0344446
78,0.275506,-2.5068,-3.6307,0.675572,0,0,0,0,0,0,0,0,0,0,0,0,0,0,0,0,0,0,0
79,0.274505,-2.5068,-3.62182,0.684505,1163.15,56.3987,5.91854,1076.94,441.552,0,0,0.00120473,0.0001817,-0.0724439,1.50208,0.0230425,1.53551,0,0,1.01E+06,1.01E+06,0.103878,0.0351069
80,0.273504,-2.5068,-3.61295,0.693438,1183.11,60.043,5.07777,1089.42,463.878,0,0,0.00120473,0.0001817,-0.0797451,1.56363,0.0353784,1.59955,0,0,1.01E+06,1.01E+06,0.102809,0.0357093
81,0.272504,-2.5068,-3.60407,0.702371,1197.43,63.6751,4.35135,1101.52,486.947,0,0,0.00120473,0.0001817,-0.0868141,1.63726,0.0502882,1.67528,0,0,1.01E+06,1.01E+06,0.101226,0.0361416
82,0.265078,-2.5068,-3.59817,0.711856,1188.38,62.1111,-2.40362,1111.72,501.539,0,0,0.00120473,0.0001817,-0.0894538,1.53411,0.0427969,1.57105,0,0,1.01E+06,1.02E+06,0.102848,0.0358684
83,0.257652,-2.5068,-3.59227,0.721341,1180.93,60.669,-8.00588,1121.86,515.224,0,0,0.00120473,0.0001817,-0.0912092,1.43979,0.0363831,1.47512,0,0,1.01E+06,1.02E+06,0.104118,0.0356434
84,0.250227,-2.5068,-3.58637,0.730826,1175.2,59.3504,-12.4442,1131.92,527.976,0,0,0.00120473,0.0001817,-0.0920746,1.35417,0.0310095,1.38735,0,0,1.01E+06,1.02E+06,0.105044,0.0354706
85,0.242801,-2.5068,-3.58047,0.740311,1171.33,58.157,-15.7063,1141.91,539.769,0,0,0.00120473,0.0001817,-0.0920434,1.27711,0.0266385,1.30763,0,0,1.01E+06,1.02E+06,0.10563,0.0353538
86,0.235375,-2.5068,-3.57456,0.749795,1169.46,57.0909,-17.7784,1151.85,550.577,0,0,0.00120473,0.0001817,-0.0911078,1.20849,0.0232329,1.23582,0,0,1.01E+06,1.02E+06,0.105882,0.0352972
87,0.227949,-2.5068,-3.56866,0.75928,1160.49,56.0833,-16.8343,1150.27,557.004,0,0,0.00120473,0.0001817,-0.0898577,1.17253,0.0207969,1.19688,0,0,1.01E+06,1.02E+06,0.104399,0.0350266
88,0.220524,-2.5068,-3.56276,0.768765,1136.41,55.0132,-12.554,1129.28,557.421,0,0,0.00120473,0.0001817,-0.0893522,1.18176,0.0189458,1.2041,0,0,1.01E+06,1.02E+06,0.100342,0.0342997
89,0.213098,-2.5068,-3.55686,0.77825,1112.3,54.3474,-8.28663,1105.68,558.378,0,0,0.00120473,0.0001817,-0.0900254,1.21022,0.0185619,1.23154,0,0,1.01E+06,1.01E+06,0.0956259,0.0335722
90,0.205672,-2.5068,-3.55096,0.787735,1088.33,53.7744,-4.01869,1081.59,559.496,0,0,0.00120473,0.0001817,-0.0909673,1.24269,0.0184768,1.26323,0,0,1.01E+06,1.01E+06,0.0907872,0.0328485
91,0.198246,-2.5068,-3.54506,0.79722,1064.35,53.2015,0.249258,1057.5,560.614,0,0,0.00120473,0.0001817,-0.0919093,1.27516,0.0183917,1.29493,0,0,1.01E+06,1.01E+06,0.0859485,0.0321249
92,0.19082,-2.5068,-3.53916,0.806704,1040.38,52.6285,4.51716,1033.41,561.732,0,0,0.00120473,0.0001817,-0.0928511,1.30763,0.0183067,1.32662,0,0,1.01E+06,1.01E+06,0.0811098,0.0314012
93,0.183395,-2.5068,-3.53326,0.816189,1016.4,52.0555,8.7851,1009.32,562.849,0,0,0.00120473,0.0001817,-0.0937931,1.3401,0.0182216,1.35832,0,0,1.01E+06,1.01E+06,0.0762711,0.0306776
94,0.175969,-2.5068,-3.52736,0.825674,992.618,51.4829,13.0637,985.43,564.014,0,0,0.00120473,0.0001817,-0.0947426,1.37203,0.018151,1.38948,0,0,1.01E+06,1.01E+06,0.0714773,0.0299598
95,0.168543,-2.5068,-3.52146,0.835159,987.976,50.777,18.0641,981.051,570.637,0,0,0.00120473,0.0001817,-0.0957957,1.35267,0.0198116,1.3698,0,0,1.01E+06,1.01E+06,0.0710513,0.0298197
96,0.161117,-2.5068,-3.51556,0.844644,986.443,48.7097,20.5641,980.107,584.808,0,0,0.00120473,0.0001817,-0.0917371,1.34158,0.0242033,1.35798,0,0,1.01E+06,1.01E+06,0.0709254,0.0297734
97,0.153692,-2.5068,-3.50966,0.854129,984.909,46.6423,23.0642,979.163,598.979,0,0,0.00120473,0.0001817,-0.0876786,1.3305,0.028595,1.34616,0,0,1.01E+06,1.01E+06,0.0707994,0.0297271
98,0.146266,-2.5068,-3.50375,0.863613,983.376,44.5749,25.5643,978.218,613.15,0,0,0.00120473,0.0001817,-0.08362,1.31942,0.0329867,1.33435,0,0,1.01E+06,1.01E+06,0.0706735,0.0296808
99,0.13884,-2.5068,-3.49785,0.873098,981.842,42.5076,28.0643,977.274,627.32,0,0,0.00120473,0.0001817,-0.0795614,1.30833,0.0373783,1.32253,0,0,1.01E+06,1.01E+06,0.0705475,0.0296345
100,0.131414,-2.5068,-3.49195,0.882583,983.013,41.3848,30.7525,976.427,643.394,0,0,0.00120473,0.0001817,-0.0765791,1.30488,0.0448989,1.31899,0,0,1.01E+06,1.01E+06,0.070526,0.0296699
101,0.123989,-2.5068,-3.48605,0.892068,984.11,40.487,33.3625,975.636,660.14,0,0,0.00120473,0.0001817,-0.0733948,1.30274,0.0538713,1.31647,0,0,1.01E+06,1.01E+06,0.070485,0.029703
102,0.116435,-2.5068,-3.48494,0.899703,979.758,36.7645,36.2592,976.884,660.566,0,0,0.00120473,0.0001817,-0.0673863,1.28294,0.0511114,1.29468,0,0,1.01E+06,1.01E+06,0.0697035,0.0295716
103,0.10888,-2.5068,-3.48383,0.907338,980.532,35.067,39.4642,978.38,665.267,0,0,0.00120473,0.0001817,-0.0632477,1.27917,0.0557303,1.28988,0,0,1.01E+06,1.01E+06,0.0691011,0.029595
104,0.101326,-2.5068,-3.48273,0.914973,976.675,32.4559,40.0236,974.593,668.377,0,0,0.00120473,0.0001817,-0.0615314,1.27564,0.0464208,1.28567,0,0,1.01E+06,1.01E+06,0.0684934,0.0294786
105,0.0937723,-2.5068,-3.48162,0.922608,975.81,30.0424,41.8643,973.641,666.896,0,0,0.00120473,0.0001817,-0.0598956,1.266,0.0352134,1.27512,0,0,1.01E+06,1.01E+06,0.0682331,0.0294525
106,0.0862182,-2.5068,-3.48051,0.930243,974.945,27.629,43.7051,972.688,665.416,0,0,0.00120473,0.0001817,-0.0582599,1.25635,0.024006,1.26456,0,0,1.01E+06,1.01E+06,0.0679729,0.0294264
107,0.0786641,-2.5068,-3.4794,0.937878,974.08,25.2156,45.5458,971.736,663.935,0,0,0.00120473,0.0001817,-0.0566242,1.24671,0.0127986,1.25401,0,0,1.01E+06,1.01E+06,0.0677126,0.0294003
108,0.07111,-2.5068,-3.47829,0.945513,973.215,22.8022,47.3866,970.783,662.455,0,0,0.00120473,0.0001817,-0.0549884,1.23706,0.00159125,1.24346,0,0,1.01E+06,1.01E+06,0.0674523,0.0293742
109,0.0635559,-2.5068,-3.47718,0.953148,972.35,20.3888,49.2274,969.831,660.975,0,0,0.00120473,0.0001817,-0.0533527,1.22741,-0.00961613,1.23291,0,0,1.01E+06,1.01E+06,0.0671921,0.0293481
110,0.0560018,-2.5068,-3.47608,0.960783,971.486,17.9754,51.0681,968.879,659.494,0,0,0.00120473,0.0001817,-0.0517169,1.21777,-0.0208235,1.22236,0,0,1.01E+06,1.01E+06,0.0669318,0.029322
111,0.0484478,-2.5068,-3.47497,0.968418,970.621,15.562,52.9088,967.926,658.014,0,0,0.00120473,0.0001817,-0.0500812,1.20812,-0.0320309,1.21181,0,0,1.01E+06,1.01E+06,0.0666716,0.0292959
112,0.0408937,-2.5068,-3.47386,0.976053,969.756,13.1485,54.7496,966.974,656.533,0,0,0.00120473,0.0001817,-0.0484455,1.19848,-0.0432383,1.20125,0,0,1.01E+06,1.01E+06,0.0664113,0.0292698
113,0.0333396,-2.5068,-3.47275,0.983688,986.314,12.9158,58.2319,983.183,645.27,0,0,0.00120473,0.0001817,-0.0440215,1.16386,-0.039293,1.16607,0,0,1.01E+06,1.01E+06,0.069322,0.0297695
114,0.0257855,-2.5068,-3.47164,0.991323,998.646,12.9868,60.598,995.283,637.945,0,0,0.00120473,0.0001817,-0.0386819,1.14128,-0.0303297,1.14314,0,0,1.01E+06,1.01E+06,0.071392,0.0301417
115,0.0182314,-2.5068,-3.47053,0.998958,991.932,12.0607,59.9739,988.712,643.916,0,0,0.00120473,0.0001817,-0.0337391,1.15594,-0.0234534,1.1576,0,0,1.01E+06,1.01E+06,0.0698768,0.0299391
116,0.0106773,-2.5068,-3.46942,1.00659,985.219,11.1346,59.3499,982.142,649.888,0,0,0.00120473,0.0001817,-0.0287963,1.17061,-0.016577,1.17207,0,0,1.01E+06,1.01E+06,0.0683617,0.0297365
117,0.00312326,-2.5068,-3.46832,1.01423,978.505,10.2085,58.7258,975.571,655.86,0,0,0.00120473,0.0001817,-0.0238535,1.18527,-0.0097007,1.18653,0,0,1.01E+06,1.01E+06,0.0668464,0.0295338
118,-0.00443083,-2.5068,-3.46721,1.02186,971.791,9.28238,58.1018,969.001,661.831,0,0,0.00120473,0.0001817,-0.0189107,1.19993,-0.00282436,1.201,0,0,1.01E+06,1.01E+06,0.0653312,0.0293312
119,-0.0119849,-2.5068,-3.4661,1.0295,965.077,8.35628,57.4778,962.43,667.802,0,0,0.00120473,0.0001817,-0.0139679,1.2146,0.00405198,1.21546,0,0,1.01E+06,1.01E+06,0.063816,0.0291285
120,-0.019539,-2.5068,-3.46499,1.03713,958.363,7.43013,56.8537,955.859,673.775,0,0,0.00120473,0.0001817,-0.00902506,1.22926,0.0109283,1.22993,0,0,1.01E+06,1.01E+06,0.0623007,0.0289259
121,-0.0270931,-2.5068,-3.46388,1.04477,951.649,6.50403,56.2296,949.289,679.746,0,0,0.00120473,0.0001817,-0.00408226,1.24392,0.0178047,1.24439,0,0,1.01E+06,1.01E+06,0.0607855,0.0287233
122,-0.034269,-2.5068,-3.4672,1.05267,945.124,4.81357,56.7188,942.91,679.199,0,0,0.00120473,0.0001817,-0.00509904,1.28878,0.0127568,1.2894,0,0,1.01E+06,1.01E+06,0.0582344,0.0285263
123,-0.041445,-2.5068,-3.47052,1.06058,945.601,2.24195,56.512,943.451,678.786,0,0,0.00120473,0.0001817,-0.00501001,1.30874,0.00422942,1.30979,0,0,1.01E+06,1.01E+06,0.0576595,0.0285407
124,-0.0486209,-2.5068,-3.47384,1.06849,949.32,-0.487484,56.1107,947.191,677.739,0,0,0.00120473,0.0001817,-0.00416674,1.31724,-0.00447718,1.31879,0,0,1.01E+06,1.01E+06,0.0579478,0.0286529
125,-0.0557968,-2.5068,-3.47716,1.07639,953.039,-3.21692,55.7095,950.931,676.692,0,0,0.00120473,0.0001817,-0.00332347,1.32575,-0.0131838,1.3278,0,0,1.01E+06,1.01E+06,0.0582361,0.0287652
126,-0.0629728,-2.5068,-3.48048,1.0843,956.758,-5.94635,55.3083,954.672,675.645,0,0,0.00120473,0.0001817,-0.0024802,1.33426,-0.0218904,1.3368,0,0,1.01E+06,1.01E+06,0.0585245,0.0288774
127,-0.0701487,-2.5068,-3.48379,1.0922,960.477,-8.6758,54.9069,958.412,674.599,0,0,0.00120473,0.0001817,-0.00163673,1.34277,-0.0305968,1.3458,0,0,1.01E+06,1.01E+06,0.0588128,0.0289897
128,-0.0773247,-2.5068,-3.48711,1.10011,964.196,-11.4052,54.5057,962.152,673.552,0,0,0.00120473,0.0001817,-0.000793455,1.35128,-0.0393034,1.35481,0,0,1.01E+06,1.01E+06,0.0591011,0.0291019
129,-0.0845006,-2.5068,-3.49043,1.10802,969.402,-14.0044,54.0978,967.276,670.488,0,0,0.00120473,0.0001817,0.000534549,1.3544,-0.0471771,1.35843,0,0,1.01E+06,1.01E+06,0.0598195,0.0292591
130,-0.0916765,-2.5068,-3.49375,1.11592,981.073,-16.037,53.6613,978.419,658.653,0,0,0.00120473,0.0001817,0.00397126,1.33408,-0.0514271,1.33864,0,0,1.01E+06,1.01E+06,0.0624088,0.0296113
131,-0.0988525,-2.5068,-3.49707,1.12383,992.745,-18.0695,53.2247,989.561,646.818,0,0,0.00120473,0.0001817,0.00740796,1.31377,-0.0556771,1.31885,0,0,1.01E+06,1.01E+06,0.064998,0.0299636
132,-0.106028,-2.5068,-3.50039,1.13174,1004.42,-20.1021,52.7882,1000.7,634.983,0,0,0.00120473,0.0001817,0.0108447,1.29346,-0.0599272,1.29906,0,0,1.01E+06,1.01E+06,0.0675873,0.0303159
133,-0.113204,-2.5068,-3.50371,1.13964,1016.09,-22.1347,52.3516,1011.85,623.148,0,0,0.00120473,0.0001817,0.0142814,1.27315,-0.0641772,1.27927,0,0,1.01E+06,1.01E+06,0.0701765,0.0306682
134,-0.12038,-2.5068,-3.50703,1.14755,1027.76,-24.1672,51.9151,1022.99,611.313,0,0,0.00120473,0.0001817,0.0177181,1.25283,-0.0684273,1.25948,0,0,1.01E+06,1.01E+06,0.0727658,0.0310204
135,-0.127556,-2.5068,-3.51034,1.15545,1042.72,-27.6421,52.511,1037.64,600.85,0,0,0.00120473,0.0001817,0.0230856,1.20748,-0.0654151,1.21497,0,0,1.01E+06,1.01E+06,0.0773988,0.0314719
136,-0.134732,-2.5068,-3.51366,1.16336,1060.01,-32.1445,53.8424,1054.8,591.365,0,0,0.00120473,0.0001817,0.029829,1.14429,-0.0572287,1.15284,0,0,1.01E+06,1.01E+06,0.0834878,0.0319939
137,-0.141908,-2.5068,-3.51698,1.17127,1069.59,-34.7868,54.293,1064.35,583.946,0,0,0.00120473,0.0001817,0.0354079,1.10965,-0.0482149,1.11914,0,0,1.01E+06,1.01E+06,0.0873536,0.032283
138,-0.149084,-2.5068,-3.5203,1.17917,1060.78,-32.9968,52.6445,1055.77,581.453,0,0,0.00120473,0.0001817,0.0382123,1.14305,-0.03723,1.15318,0,0,1.01E+06,1.01E+06,0.0859218,0.0320171
139,-0.15626,-2.5068,-3.52362,1.18708,1051.97,-31.2067,50.9959,1047.18,578.96,0,0,0.00120473,0.0001817,0.0410167,1.17645,-0.026245,1.18722,0,0,1.01E+06,1.01E+06,0.08449,0.0317513
140,-0.163436,-2.5068,-3.52694,1.19499,1043.16,-29.4167,49.3474,1038.6,576.466,0,0,0.00120473,0.0001817,0.0438212,1.20985,-0.01526,1.22125,0,0,1.01E+06,1.01E+06,0.0830583,0.0314854
141,-0.170612,-2.5068,-3.53026,1.20289,1034.35,-27.6267,47.6989,1030.02,573.973,0,0,0.00120473,0.0001817,0.0466256,1.24324,-0.00427505,1.25529,0,0,1.01E+06,1.01E+06,0.0816265,0.0312195
142,-0.175453,-2.5068,-3.53626,1.21061,1032.2,-25.9049,44.429,1028.04,573.392,0,0,0.00120473,0.0001817,0.0471053,1.27521,0.000432985,1.28726,0,0,1.01E+06,1.01E+06,0.0800863,0.0311545
143,-0.180294,-2.5068,-3.54227,1.21832,1030.01,-23.9626,40.2687,1026,574.689,0,0,0.00120473,0.0001817,0.0477101,1.30844,0.00423703,1.32036,0,0,1.01E+06,1.01E+06,0.0782811,0.0310884
144,-0.185135,-2.5068,-3.54827,1.22603,1036.19,-24.502,37.0478,1032.31,573.521,0,0,0.00120473,0.0001817,0.0475067,1.3197,0.00265026,1.33199,0,0,1.01E+06,1.01E+06,0.0788303,0.031275
145,-0.189977,-2.5068,-3.55428,1.23375,1046.19,-26.1696,34.2541,1042.41,571.232,0,0,0.00120473,0.0001817,0.046936,1.32098,-0.00138683,1.33384,0,0,1.01E+06,1.01E+06,0.0804496,0.0315766
146,-0.194818,-2.5068,-3.56028,1.24146,1056.18,-27.8371,31.4603,1052.51,568.943,0,0,0.00120473,0.0001817,0.0463652,1.32225,-0.00542392,1.3357,0,0,1.01E+06,1.01E+06,0.082069,0.0318782
147,-0.199659,-2.5068,-3.56629,1.24917,1066.17,-29.5047,28.6665,1062.62,566.654,0,0,0.00120473,0.0001817,0.0457945,1.32353,-0.00946101,1.33756,0,0,1.01E+06,1.01E+06,0.0836884,0.0321797
148,-0.2045,-2.5068,-3.57229,1.25689,1076.16,-31.1722,25.8727,1072.72,564.365,0,0,0.00120473,0.0001817,0.0452238,1.32481,-0.0134981,1.33942,0,0,1.01E+06,1.01E+06,0.0853078,0.0324813
149,-0.209341,-2.5068,-3.5783,1.2646,1086.15,-32.8398,23.0789,1082.82,562.077,0,0,0.00120473,0.0001817,0.044653,1.32609,-0.0175352,1.34127,0,0,1.01E+06,1.01E+06,0.0869272,0.0327829
150,-0.214183,-2.5068,-3.5843,1.27231,1096.14,-34.5073,20.2851,1092.92,559.788,0,0,0.00120473,0.0001817,0.0440823,1.32736,-0.0215723,1.34313,0,0,1.01E+06,1.01E+06,0.0885466,0.0330845
151,-0.219024,-2.5068,-3.59031,1.28002,1106.14,-36.1749,17.4913,1103.03,557.499,0,0,0.00120473,0.0001817,0.0435115,1.32864,-0.0256094,1.34499,0,0,1.01E+06,1.01E+06,0.0901659,0.0333861
152,-0.223865,-2.5068,-3.59631,1.28774,1116.13,-37.8424,14.6976,1113.13,555.21,0,0,0.00120473,0.0001817,0.0429408,1.32992,-0.0296464,1.34685,0,0,1.01E+06,1.01E+06,0.0917853,0.0336876
153,-0.228706,-2.5068,-3.60231,1.29545,1118.93,-39.233,13.6973,1116.06,548.998,0,0,0.00120473,0.0001817,0.0412793,1.33083,-0.0319911,1.34804,0,0,1.01E+06,1.01E+06,0.0926751,0.0337723
154,-0.233548,-2.5068,-3.60832,1.30316,1112.4,-40.2634,15.0286,1109.67,537.685,0,0,0.00120473,0.0001817,0.0381999,1.33128,-0.0321357,1.34839,0,0,1.01E+06,1.01E+06,0.0926165,0.033575
155,-0.238389,-2.5068,-3.61432,1.31088,1105.86,-41.2939,16.3598,1103.28,526.372,0,0,0.00120473,0.0001817,0.0351206,1.33173,-0.0322803,1.34873,0,0,1.01E+06,1.01E+06,0.0925579,0.0333777
156,-0.24323,-2.5068,-3.62033,1.31859,1099.32,-42.3244,17.6911,1096.89,515.06,0,0,0.00120473,0.0001817,0.0320412,1.33218,-0.0324249,1.34907,0,0,1.01E+06,1.01E+06,0.0924993,0.0331804
157,-0.248071,-2.5068,-3.62633,1.3263,1092.79,-43.3548,19.0223,1090.5,503.747,0,0,0.00120473,0.0001817,0.0289618,1.33263,-0.0325695,1.34942,0,0,1.01E+06,1.01E+06,0.0924407,0.0329832
158,-0.252912,-2.5068,-3.63234,1.33402,1086.25,-44.3853,20.3536,1084.11,492.434,0,0,0.00120473,0.0001817,0.0258824,1.33307,-0.0327141,1.34976,0,0,1.01E+06,1.01E+06,0.0923821,0.0327859
159,-0.257754,-2.5068,-3.63834,1.34173,1079.71,-45.4158,21.6848,1077.72,481.122,0,0,0.00120473,0.0001817,0.0228031,1.33352,-0.0328587,1.3501,0,0,1.01E+06,1.01E+06,0.0923235,0.0325886
160,-0.262595,-2.5068,-3.64435,1.34944,1073.18,-46.4463,23.0161,1071.33,469.809,0,0,0.00120473,0.0001817,0.0197237,1.33397,-0.0330034,1.35045,0,0,1.01E+06,1.01E+06,0.0922649,0.0323913
161,-0.267436,-2.5068,-3.65035,1.35716,1072.2,-47.0511,22.1678,1070.46,460.233,0,0,0.00120473,0.0001817,0.0181586,1.3281,-0.0317056,1.34453,0,0,1.01E+06,1.01E+06,0.0932885,0.0323619
162,-0.266991,-2.5068,-3.65698,1.3638,1080.67,-46.2228,20.4353,1078.99,453.893,0,0,0.00120473,0.0001817,0.0160008,1.32916,-0.0302573,1.34505,0,0,1.01E+06,1.01E+06,0.0941564,0.0326173
163,-0.266546,-2.5068,-3.66361,1.37045,1089.13,-45.3945,18.7029,1087.53,447.553,0,0,0.00120473,0.0001817,0.013843,1.33022,-0.0288091,1.34557,0,0,1.01E+06,1.01E+06,0.0950243,0.0328727
164,-0.266101,-2.5068,-3.67024,1.37709,1097.59,-44.5661,16.9704,1096.07,441.213,0,0,0.00120473,0.0001817,0.0116853,1.33128,-0.0273608,1.34609,0,0,1.01E+06,1.01E+06,0.0958921,0.0331281
165,-0.265655,-2.5068,-3.67687,1.38374,1106.05,-43.7378,15.2379,1104.6,434.873,0,0,0.00120473,0.0001817,0.00952747,1.33233,-0.0259126,1.34662,0,0,1.01E+06,1.01E+06,0.09676,0.0333836
166,-0.26521,-2.5068,-3.6835,1.39038,1114.52,-42.9095,13.5054,1113.14,428.533,0,0,0.00120473,0.0001817,0.00736975,1.33339,-0.0244644,1.34714,0,0,1.01E+06,1.01E+06,0.0976278,0.033639
167,-0.264765,-2.5068,-3.69013,1.39703,1122.98,-42.0812,11.7729,1121.68,422.193,0,0,0.00120473,0.0001817,0.00521196,1.33445,-0.0230161,1.34766,0,0,1.01E+06,1.01E+06,0.0984957,0.0338944
168,-0.26432,-2.5068,-3.69676,1.40367,1131.44,-41.2528,10.0404,1130.21,415.853,0,0,0.00120473,0.0001817,0.00305417,1.33551,-0.0215679,1.34819,0,0,1.01E+06,1.01E+06,0.0993636,0.0341498
169,-0.263875,-2.5068,-3.70339,1.41031,1139.9,-40.4245,8.30801,1138.75,409.513,0,0,0.00120473,0.0001817,0.000896445,1.33657,-0.0201197,1.34871,0,0,1.01E+06,1.01E+06,0.100231,0.0344052
170,-0.26343,-2.5068,-3.71002,1.41696,1148.37,-39.5962,6.57551,1147.29,403.173,0,0,0.00120473,0.0001817,-0.00126135,1.33763,-0.0186714,1.34923,0,0,1.01E+06,1.01E+06,0.101099,0.0346606
171,-0.262985,-2.5068,-3.71665,1.4236,1155.79,-38.6584,5.34878,1154.78,396.118,0,0,0.00120473,0.0001817,-0.00410517,1.34267,-0.0174687,1.35379,0,0,1.01E+06,1.01E+06,0.101701,0.0348847
172,-0.26254,-2.5068,-3.72328,1.43025,1157.59,-37.1273,6.86397,1156.6,385.188,0,0,0.00120473,0.0001817,-0.0106691,1.36935,-0.0175972,1.38023,0,0,1.01E+06,1.01E+06,0.100859,0.034939
173,-0.262094,-2.5068,-3.72991,1.43689,1159.39,-35.5962,8.37917,1158.42,374.257,0,0,0.00120473,0.0001817,-0.017233,1.39602,-0.0177256,1.40667,0,0,1.01E+06,1.01E+06,0.100017,0.0349933
174,-0.261649,-2.5068,-3.73654,1.44354,1161.18,-34.0651,9.89432,1160.24,363.327,0,0,0.00120473,0.0001817,-0.0237967,1.42269,-0.0178541,1.43311,0,0,1.01E+06,1.01E+06,0.0991756,0.0350475
175,-0.261204,-2.5068,-3.74317,1.45018,1162.98,-32.5339,11.4095,1162.07,352.397,0,0,0.00120473,0.0001817,-0.0303606,1.44936,-0.0179825,1.45955,0,0,1.01E+06,1.01E+06,0.0983339,0.0351018
176,-0.260759,-2.5068,-3.7498,1.45683,1164.78,-31.0028,12.9247,1163.89,341.467,0,0,0.00120473,0.0001817,-0.0369245,1.47603,-0.018111,1.48598,0,0,1.01E+06,1.01E+06,0.0974921,0.0351561
177,-0.260314,-2.5068,-3.75643,1.46347,1166.58,-29.4717,14.4399,1165.71,330.537,0,0,0.00120473,0.0001817,-0.0434882,1.5027,-0.0182394,1.51242,0,0,1.01E+06,1.01E+06,0.0966503,0.0352103
178,-0.259869,-2.5068,-3.76306,1.47012,1168.38,-27.9406,15.9551,1167.53,319.607,0,0,0.00120473,0.0001817,-0.0500522,1.52937,-0.0183679,1.53886,0,0,1.01E+06,1.01E+06,0.0958086,0.0352646
179,-0.259424,-2.5068,-3.76969,1.47676,1170.98,-26.6103,15.4866,1170.16,309.739,0,0,0.00120473,0.0001817,-0.053407,1.53219,-0.0164354,1.54147,0,0,1.01E+06,1.01E+06,0.0960518,0.0353432
180,-0.258979,-2.5068,-3.77632,1.4834,1174.17,-25.4279,13.559,1173.39,300.652,0,0,0.00120473,0.0001817,-0.0544013,1.51747,-0.012987,1.52656,0,0,1.01E+06,1.01E+06,0.0970932,0.0354396
181,-0.258534,-2.5068,-3.78295,1.49005,1177.37,-24.2454,11.6313,1176.61,291.565,0,0,0.00120473,0.0001817,-0.0553956,1.50275,-0.00953848,1.51164,0,0,1.01E+06,1.01E+06,0.0981346,0.035536
182,-0.253586,-2.5068,-3.78944,1.49821,1182.68,-22.4149,10.3208,1181.96,284.653,0,0,0.00120473,0.0001817,-0.0566513,1.48873,-0.00652284,1.49702,0,0,1.01E+06,1.01E+06,0.0984048,0.0356964
183,-0.248639,-2.5068,-3.79594,1.50638,1188,-20.5844,9.01012,1187.32,277.741,0,0,0.00120473,0.0001817,-0.0579071,1.4747,-0.00350707,1.48239,0,0,1.01E+06,1.01E+06,0.098675,0.0358568
184,-0.243692,-2.5068,-3.80243,1.51454,1193.31,-18.7539,7.69949,1192.67,270.829,0,0,0.00120473,0.0001817,-0.0591628,1.46068,-0.000491293,1.46777,0,0,1.01E+06,1.01E+06,0.0989452,0.0360173
185,-0.238745,-2.5068,-3.80893,1.52271,1198.75,-17.7278,6.14525,1198.14,262.122,0,0,0.00120473,0.0001817,-0.0606181,1.46287,-0.000645104,1.46958,0,0,1.01E+06,1.01E+06,0.0989059,0.0361814
186,-0.233797,-2.5068,-3.81543,1.53087,1204.3,-17.4252,4.37182,1203.72,251.801,0,0,0.00120473,0.0001817,-0.0622529,1.47965,-0.00365002,1.48617,0,0,1.01E+06,1.01E+06,0.0985881,0.0363489
187,-0.22885,-2.5068,-3.82192,1.53904,1209.85,-17.1225,2.59831,1209.3,241.48,0,0,0.00120473,0.0001817,-0.0638878,1.49643,-0.00665492,1.50277,0,0,1.01E+06,1.01E+06,0.0982704,0.0365164
188,-0.223903,-2.5068,-3.82842,1.54721,1215.4,-16.8199,0.824794,1214.88,231.159,0,0,0.00120473,0.0001817,-0.0655226,1.51321,-0.00965983,1.51936,0,0,1.01E+06,1.01E+06,0.0979527,0.0366839
189,-0.218956,-2.5068,-3.83491,1.55537,1220.95,-16.5173,-0.948641,1220.46,220.838,0,0,0.00120473,0.0001817,-0.0671574,1.52999,-0.0126647,1.53595,0,0,1.01E+06,1.01E+06,0.097635,0.0368514
190,-0.214009,-2.5068,-3.84141,1.56354,1226.5,-16.2147,-2.72207,1226.04,210.517,0,0,0.00120473,0.0001817,-0.0687923,1.54677,-0.0156697,1.55254,0,0,1.01E+06,1.01E+06,0.0973173,0.0370189
191,-0.209061,-2.5068,-3.8479,1.5717,1232.05,-15.912,-4.49559,1231.62,200.195,0,0,0.00120473,0.0001817,-0.0704271,1.56355,-0.0186746,1.56913,0,0,1.01E+06,1.01E+06,0.0969995,0.0371865
192,-0.204114,-2.5068,-3.8544,1.57987,1237.6,-15.6094,-6.2691,1237.2,189.874,0,0,0.00120473,0.0001817,-0.072062,1.58033,-0.0216795,1.58573,0,0,1.01E+06,1.01E+06,0.0966818,0.037354
193,-0.199167,-2.5068,-3.8609,1.58803,1243.15,-15.3068,-8.04253,1242.78,179.553,0,0,0.00120473,0.0001817,-0.0736968,1.59711,-0.0246844,1.60232,0,0,1.01E+06,1.01E+06,0.0963641,0.0375215
194,-0.19422,-2.5068,-3.86739,1.5962,1248.7,-15.0042,-9.81597,1248.36,169.232,0,0,0.00120473,0.0001817,-0.0753317,1.61389,-0.0276893,1.61891,0,0,1.01E+06,1.01E+06,0.0960464,0.037689
195,-0.189273,-2.5068,-3.87389,1.60436,1254.25,-14.7016,-11.5895,1253.94,158.911,0,0,0.00120473,0.0001817,-0.0769665,1.63067,-0.0306942,1.6355,0,0,1.01E+06,1.01E+06,0.0957287,0.0378565
196,-0.184325,-2.5068,-3.88038,1.61253,1259.8,-14.3989,-13.363,1259.52,148.589,0,0,0.00120473,0.0001817,-0.0786014,1.64745,-0.0336991,1.6521,0,0,1.01E+06,1.01E+06,0.095411,0.038024
197,-0.179378,-2.5068,-3.88688,1.62069,1259.92,-13.8819,-15.1772,1259.67,138.681,0,0,0.00120473,0.0001817,-0.080347,1.66735,-0.0358106,1.67187,0,0,1.01E+06,1.01E+06,0.094634,0.0380276
198,-0.174431,-2.5068,-3.89338,1.62886,1257.21,-13.7333,-17.6101,1256.91,133.755,0,0,0.00120473,0.0001817,-0.0803544,1.68958,-0.0324654,1.69368,0,0,1.01E+06,1.01E+06,0.0941012,0.0379458
199,-0.169484,-2.5068,-3.89987,1.63702,1256.97,-13.6823,-19.9231,1255.93,129.338,0,0,0.00120473,0.0001817,-0.0799883,1.70751,-0.0288499,1.71114,0,0,1.01E+06,1.01E+06,0.0939553,0.0379386
200,-0.164537,-2.5068,-3.90637,1.64519,1254.13,-13.2867,-21.6778,1250.47,124.633,0,0,0.00120473,0.0001817,-0.0796945,1.7187,-0.0254643,1.72197,0,0,1.01E+06,1.01E+06,0.0938327,0.0378528
201,-0.159589,-2.5068,-3.91286,1.65335,1251.28,-12.8912,-23.4325,1245.02,119.928,0,0,0.00120473,0.0001817,-0.0794006,1.72989,-0.0220788,1.7328,0,0,1.01E+06,1.01E+06,0.09371,0.037767
202,-0.151634,-2.5068,-3.91415,1.66141,1234.21,-12.9231,-25.3695,1233.73,123.338,0,0,0.00120473,0.0001817,-0.0802022,1.79374,-0.0201798,1.79616,0,0,1.01E+06,1.01E+06,0.0896451,0.0372516
203,-0.143679,-2.5068,-3.91543,1.66947,1243.42,-13.2013,-26.6147,1242.9,124.698,0,0,0.00120473,0.0001817,-0.076485,1.78848,-0.0164356,1.79051,0,0,1.01E+06,1.01E+06,0.0908577,0.0375297
204,-0.135724,-2.5068,-3.91671,1.67753,1239.58,-13.725,-26.9465,1239.01,124.671,0,0,0.00120473,0.0001817,-0.0723439,1.77367,-0.0146717,1.77558,0,0,1.01E+06,1.01E+06,0.091463,0.0374137
205,-0.127769,-2.5068,-3.91799,1.68558,1235.74,-14.2488,-27.2784,1235.13,124.643,0,0,0.00120473,0.0001817,-0.0682027,1.75887,-0.0129078,1.76065,0,0,1.01E+06,1.01E+06,0.0920683,0.0372978
206,-0.119814,-2.5068,-3.91928,1.69364,1231.9,-14.7725,-27.6101,1231.24,124.615,0,0,0.00120473,0.0001817,-0.0640616,1.74406,-0.0111438,1.74572,0,0,1.01E+06,1.01E+06,0.0926736,0.0371819
207,-0.111858,-2.5068,-3.92056,1.7017,1228.06,-15.2962,-27.9419,1227.36,124.587,0,0,0.00120473,0.0001817,-0.0599205,1.72926,-0.0093799,1.73079,0,0,1.01E+06,1.01E+06,0.0932789,0.037066
208,-0.103903,-2.5068,-3.92184,1.70976,1224.22,-15.8199,-28.2737,1223.47,124.56,0,0,0.00120473,0.0001817,-0.0557793,1.71445,-0.00761598,1.71586,0,0,1.01E+06,1.01E+06,0.0938842,0.03695
209,-0.0959481,-2.5068,-3.92312,1.71782,1220.38,-16.3436,-28.6055,1219.58,124.532,0,0,0.00120473,0.0001817,-0.0516382,1.69965,-0.00585206,1.70093,0,0,1.01E+06,1.01E+06,0.0944895,0.0368341
210,-0.0879929,-2.5068,-3.92441,1.72587,1216.53,-16.8673,-28.9373,1215.7,124.504,0,0,0.00120473,0.0001817,-0.0474971,1.68484,-0.00408814,1.686,0,0,1.01E+06,1.01E+06,0.0950948,0.0367182
211,-0.0800377,-2.5068,-3.92569,1.73393,1212.69,-17.3909,-29.269,1211.81,124.476,0,0,0.00120473,0.0001817,-0.0433559,1.67004,-0.00232421,1.67107,0,0,1.01E+06,1.01E+06,0.0957001,0.0366022
212,-0.0720826,-2.5068,-3.92697,1.74199,1208.85,-17.9147,-29.6009,1207.92,124.448,0,0,0.00120473,0.0001817,-0.0392147,1.65523,-0.000560302,1.65614,0,0,1.01E+06,1.01E+06,0.0963054,0.0364863
213,-0.0641274,-2.5068,-3.92826,1.75005,1205.01,-18.4384,-29.9326,1204.04,124.421,0,0,0.00120473,0.0001817,-0.0350736,1.64043,0.00120362,1.64121,0,0,1.01E+06,1.01E+06,0.0969107,0.0363704
214,-0.0561722,-2.5068,-3.92954,1.75811,1201.17,-18.9621,-30.2644,1200.15,124.393,0,0,0.00120473,0.0001817,-0.0309325,1.62562,0.00296754,1.62628,0,0,1.01E+06,1.01E+06,0.097516,0.0362544
215,-0.048217,-2.5068,-3.93082,1.76616,1197.33,-19.4858,-30.5962,1196.26,124.365,0,0,0.00120473,0.0001817,-0.0267913,1.61082,0.00473147,1.61135,0,0,1.01E+06,1.01E+06,0.0981213,0.0361385
216,-0.0402619,-2.5068,-3.9321,1.77422,1193.49,-20.0095,-30.928,1192.38,124.338,0,0,0.00120473,0.0001817,-0.0226502,1.59601,0.00649539,1.59642,0,0,1.01E+06,1.01E+06,0.0987266,0.0360226
217,-0.0323067,-2.5068,-3.93339,1.78228,1195.3,-19.2216,-30.4737,1194.21,124.826,0,0,0.00120473,0.0001817,-0.019666,1.57516,0.00934236,1.57547,0,0,1.01E+06,1.01E+06,0.099577,0.0360773
218,-0.0243515,-2.5068,-3.93467,1.79034,1199.14,-18.4808,-29.4837,1197.93,125.168,0,0,0.00120473,0.0001817,-0.0163149,1.55643,0.0108337,1.55672,0,0,1.01E+06,1.01E+06,0.100349,0.0361932
219,-0.0163963,-2.5068,-3.93595,1.7984,1195.78,-21.3392,-28.5513,1193.78,123.618,0,0,0.00120473,0.0001817,-0.00857713,1.56131,0.00445004,1.56185,0,0,1.01E+06,1.01E+06,0.100185,0.0360917
220,-0.00844117,-2.5068,-3.93723,1.80645,1192.42,-24.1976,-27.619,1189.64,122.069,0,0,0.00120473,0.0001817,-0.000839327,1.5662,-0.00193358,1.56699,0,0,1.01E+06,1.01E+06,0.100022,0.0359903
221,-0.000485999,-2.5068,-3.93852,1.81451,1189.06,-27.0559,-26.6867,1185.49,120.52,0,0,0.00120473,0.0001817,0.00689847,1.57109,-0.00831719,1.57212,0,0,1.01E+06,1.01E+06,0.0998593,0.0358888
222,0.00702165,-2.5068,-3.93509,1.82276,1187.31,-29.7334,-25.5915,1183.04,125.175,0,0,0.00120473,0.0001817,0.0138079,1.59266,-0.0146257,1.5939,0,0,1.01E+06,1.01E+06,0.0987716,0.0358361
223,0.0145293,-2.5068,-3.93167,1.83102,1185.57,-32.4108,-24.4964,1180.6,129.83,0,0,0.00120473,0.0001817,0.0207172,1.61422,-0.0209342,1.61568,0,0,1.01E+06,1.01E+06,0.0976839,0.0357835
224,0.022037,-2.5068,-3.92824,1.83927,1183.42,-34.3948,-23.8285,1177.86,134.219,0,0,0.00120473,0.0001817,0.0267421,1.63922,-0.0259064,1.64086,0,0,1.01E+06,1.01E+06,0.0965657,0.0357186
225,0.0295446,-2.5068,-3.92482,1.84752,1180.11,-32.475,-24.867,1174.6,137.094,0,0,0.00120473,0.0001817,0.0288087,1.66801,-0.0251258,1.66969,0,0,1.01E+06,1.01E+06,0.0953021,0.0356189
226,0.0370523,-2.5068,-3.92139,1.85577,1177.86,-30.1568,-25.3444,1172.48,139.797,0,0,0.00120473,0.0001817,0.0315459,1.68087,-0.0256199,1.68255,0,0,1.01E+06,1.01E+06,0.0940514,0.035551
227,0.0445599,-2.5068,-3.91796,1.86402,1175.61,-27.8386,-25.8219,1170.35,142.499,0,0,0.00120473,0.0001817,0.0342831,1.69372,-0.026114,1.6954,0,0,1.01E+06,1.01E+06,0.0928007,0.0354831
228,0.0520676,-2.5068,-3.91454,1.87228,1173.37,-25.5205,-26.2993,1168.23,145.201,0,0,0.00120473,0.0001817,0.0370204,1.70657,-0.0266081,1.70826,0,0,1.01E+06,1.01E+06,0.09155,0.0354152
229,0.0595752,-2.5068,-3.91111,1.88053,1171.12,-23.2023,-26.7768,1166.11,147.903,0,0,0.00120473,0.0001817,0.0397576,1.71943,-0.0271022,1.72112,0,0,1.01E+06,1.01E+06,0.0902992,0.0353473
230,0.0670829,-2.5068,-3.90769,1.88878,1168.87,-20.8841,-27.2542,1163.98,150.605,0,0,0.00120473,0.0001817,0.0424948,1.73228,-0.0275964,1.73398,0,0,1.01E+06,1.01E+06,0.0890485,0.0352795
231,0.0745905,-2.5068,-3.90426,1.89703,1166.62,-18.5659,-27.7317,1161.86,153.308,0,0,0.00120473,0.0001817,0.0452321,1.74514,-0.0280905,1.74683,0,0,1.01E+06,1.01E+06,0.0877978,0.0352116
232,0.0820982,-2.5068,-3.90084,1.90529,1164.37,-16.2477,-28.2091,1159.73,156.01,0,0,0.00120473,0.0001817,0.0479693,1.75799,-0.0285846,1.75969,0,0,1.01E+06,1.01E+06,0.086547,0.0351437
233,0.0896058,-2.5068,-3.89741,1.91354,1162.12,-13.9295,-28.6866,1157.61,158.712,0,0,0.00120473,0.0001817,0.0507065,1.77084,-0.0290787,1.77255,0,0,1.01E+06,1.01E+06,0.0852963,0.0350758
234,0.0971135,-2.5068,-3.89399,1.92179,1161.59,-11.5689,-29.1374,1156.69,161.467,0,0,0.00120473,0.0001817,0.0532625,1.78097,-0.0295115,1.78269,0,0,1.01E+06,1.01E+06,0.0843134,0.0350599
235,0.104621,-2.5068,-3.89056,1.93004,1163.02,-9.15985,-29.5579,1157.14,164.28,0,0,0.00120473,0.0001817,0.0556124,1.788,-0.0298745,1.78974,0,0,1.01E+06,1.01E+06,0.0836352,0.035103
236,0.112129,-2.5068,-3.88714,1.93829,1164.45,-6.75083,-29.9783,1157.6,167.092,0,0,0.00120473,0.0001817,0.0579623,1.79503,-0.0302376,1.7968,0,0,1.01E+06,1.01E+06,0.082957,0.0351461
237,0.119636,-2.5068,-3.88371,1.94655,1165.88,-4.34182,-30.3988,1158.06,169.905,0,0,0.00120473,0.0001817,0.0603122,1.80207,-0.0306006,1.80385,0,0,1.01E+06,1.01E+06,0.0822788,0.0351892
238,0.127144,-2.5068,-3.88029,1.9548,1167.31,-1.93275,-30.8193,1158.51,172.719,0,0,0.00120473,0.0001817,0.062662,1.8091,-0.0309636,1.8109,0,0,1.01E+06,1.01E+06,0.0816006,0.0352324
239,0.134652,-2.5068,-3.87686,1.96305,1163.98,-0.952836,-29.7146,1153.93,175.861,0,0,0.00120473,0.0001817,0.0658745,1.80708,-0.0337213,1.80927,0,0,1.01E+06,1.01E+06,0.0810536,0.0351319
240,0.142159,-2.5068,-3.87343,1.9713,1155.55,-1.5023,-26.9777,1143.96,179.356,0,0,0.00120473,0.0001817,0.0700103,1.79537,-0.0390416,1.79835,0,0,1.01E+06,1.01E+06,0.080647,0.0348777
241,0.149667,-2.5068,-3.87001,1.97955,1147.13,-2.05177,-24.2407,1133.98,182.85,0,0,0.00120473,0.0001817,0.0741461,1.78367,-0.0443619,1.78742,0,0,1.01E+06,1.01E+06,0.0802404,0.0346234
242,0.152153,-2.5068,-3.86365,1.98638,1165.15,-0.61288,-22.9789,1146.48,191.015,0,0,0.00120473,0.0001817,0.0729453,1.76184,-0.0454007,1.7658,0,0,1.01E+06,1.01E+06,0.0817546,0.0351673
243,0.154639,-2.5068,-3.85729,1.99321,1163.29,0.980651,-24.7178,1148.75,198.894,0,0,0.00120473,0.0001817,0.0704356,1.76068,-0.0469125,1.76474,0,0,1.01E+06,1.01E+06,0.0818356,0.0351111
244,0.157125,-2.5068,-3.85093,2.00004,1165.66,3.20911,-25.9047,1151.29,206.176,0,0,0.00120473,0.0001817,0.0659371,1.76594,-0.0474061,1.76973,0,0,1.01E+06,1.01E+06,0.0821717,0.0351827
245,0.159611,-2.5068,-3.84457,2.00687,1168.04,5.43756,-27.0917,1153.83,213.457,0,0,0.00120473,0.0001817,0.0614385,1.77121,-0.0478996,1.77472,0,0,1.01E+06,1.01E+06,0.0825078,0.0352543
246,0.162097,-2.5068,-3.83821,2.01369,1170.41,7.66601,-28.2787,1156.37,220.739,0,0,0.00120473,0.0001817,0.05694,1.77647,-0.0483932,1.77972,0,0,1.01E+06,1.01E+06,0.082844,0.0353259
247,0.164583,-2.5068,-3.83185,2.02052,1161.43,8.79257,-27.0215,1148.11,227.011,0,0,0.00120473,0.0001817,0.0549316,1.7805,-0.0451028,1.78375,0,0,1.01E+06,1.01E+06,0.0816751,0.0350551
248,0.167069,-2.5068,-3.82549,2.02735,1151.47,9.82237,-25.5497,1138.9,233.195,0,0,0.00120473,0.0001817,0.053142,1.78442,-0.0414802,1.7877,0,0,1.01E+06,1.01E+06,0.0803741,0.0347542
249,0.169555,-2.5068,-3.81913,2.03418,1141.5,10.8522,-24.078,1129.69,239.379,0,0,0.00120473,0.0001817,0.0513523,1.78835,-0.0378575,1.79165,0,0,1.01E+06,1.01E+06,0.0790732,0.0344533
250,0.172041,-2.5068,-3.81278,2.04101,1131.53,11.882,-22.6062,1120.47,245.564,0,0,0.00120473,0.0001817,0.0495626,1.79227,-0.0342349,1.79559,0,0,1.01E+06,1.01E+06,0.0777722,0.0341524
251,0.174527,-2.5068,-3.80642,2.04783,1121.56,12.9118,-21.1344,1111.26,251.748,0,0,0.00120473,0.0001817,0.0477728,1.79619,-0.0306121,1.79954,0,0,1.01E+06,1.01E+06,0.0764712,0.0338515
252,0.177013,-2.5068,-3.80006,2.05466,1118.78,13.9783,-19.7587,1108.54,257.462,0,0,0.00120473,0.0001817,0.0455095,1.78803,-0.0248488,1.79165,0,0,1.01E+06,1.01E+06,0.0764134,0.0337677
253,0.179499,-2.5068,-3.7937,2.06149,1116.74,15.0485,-18.3929,1106.48,263.127,0,0,0.00120473,0.0001817,0.0431977,1.77863,-0.0188663,1.78255,0,0,1.01E+06,1.01E+06,0.076483,0.0337062
254,0.181985,-2.5068,-3.78734,2.06832,1114.7,16.1187,-17.0271,1104.42,268.793,0,0,0.00120473,0.0001817,0.0408859,1.76924,-0.0128838,1.77344,0,0,1.01E+06,1.01E+06,0.0765525,0.0336446
255,0.184471,-2.5068,-3.78098,2.07515,1112.66,17.1889,-15.6612,1102.36,274.458,0,0,0.00120473,0.0001817,0.038574,1.75984,-0.00690131,1.76434,0,0,1.01E+06,1.01E+06,0.0766221,0.033583
256,0.186957,-2.5068,-3.77462,2.08197,1110.62,18.2591,-14.2954,1100.3,280.124,0,0,0.00120473,0.0001817,0.0362622,1.75045,-0.00091882,1.75524,0,0,1.01E+06,1.01E+06,0.0766916,0.0335215
257,0.189443,-2.5068,-3.76826,2.0888,1108.58,19.3293,-12.9295,1098.24,285.789,0,0,0.00120473,0.0001817,0.0339504,1.74105,0.00506368,1.74613,0,0,1.01E+06,1.01E+06,0.0767612,0.0334599
258,0.191929,-2.5068,-3.7619,2.09563,1106.54,20.3995,-11.5637,1096.19,291.455,0,0,0.00120473,0.0001817,0.0316386,1.73165,0.0110462,1.73703,0,0,1.01E+06,1.01E+06,0.0768308,0.0333983
259,0.194415,-2.5068,-3.75554,2.10246,1104.5,21.4697,-10.1979,1094.13,297.12,0,0,0.00120473,0.0001817,0.0293268,1.72226,0.0170287,1.72793,0,0,1.01E+06,1.01E+06,0.0769003,0.0333368
260,0.196901,-2.5068,-3.74918,2.10929,1102.46,22.5399,-8.83201,1092.07,302.786,0,0,0.00120473,0.0001817,0.027015,1.71286,0.0230112,1.71882,0,0,1.01E+06,1.01E+06,0.0769699,0.0332752
261,0.199387,-2.5068,-3.74282,2.11611,1100.42,23.6101,-7.46617,1090.01,308.451,0,0,0.00120473,0.0001817,0.0247032,1.70347,0.0289937,1.70972,0,0,1.01E+06,1.01E+06,0.0770395,0.0332136
262,0.196376,-2.5068,-3.73692,2.12274,1100.3,24.9387,-7.16541,1090.67,316.451,0,0,0.00120473,0.0001817,0.0222201,1.70921,0.0323275,1.715,0,0,1.01E+06,1.01E+06,0.0754365,0.0332099
263,0.193365,-2.5068,-3.73101,2.12937,1100.18,26.2674,-6.86465,1091.33,324.452,0,0,0.00120473,0.0001817,0.019737,1.71496,0.0356614,1.72029,0,0,1.01E+06,1.01E+06,0.0738335,0.0332062
264,0.190353,-2.5068,-3.72511,2.136,1100.05,27.596,-6.5639,1091.99,332.452,0,0,0.00120473,0.0001817,0.0172539,1.72071,0.0389953,1.72557,0,0,1.01E+06,1.01E+06,0.0722306,0.0332025
265,0.187342,-2.5068,-3.7192,2.14263,1099.93,28.9247,-6.26314,1092.64,340.452,0,0,0.00120473,0.0001817,0.0147708,1.72645,0.0423292,1.73085,0,0,1.01E+06,1.01E+06,0.0706276,0.0331988
266,0.184331,-2.5068,-3.7133,2.14926,1099.81,30.2534,-5.96235,1093.3,348.452,0,0,0.00120473,0.0001817,0.0122876,1.7322,0.0456632,1.73614,0,0,1.01E+06,1.01E+06,0.0690246,0.0331951
267,0.18132,-2.5068,-3.70739,2.15589,1099.69,31.582,-5.66159,1093.96,356.452,0,0,0.00120473,0.0001817,0.00980447,1.73794,0.0489971,1.74142,0,0,1.01E+06,1.01E+06,0.0674217,0.0331914
268,0.178309,-2.5068,-3.70148,2.16252,1099.56,32.9107,-5.36083,1094.62,364.452,0,0,0.00120473,0.0001817,0.00732138,1.74369,0.052331,1.74671,0,0,1.01E+06,1.01E+06,0.0658187,0.0331876
269,0.175298,-2.5068,-3.69558,2.16914,1104.66,34.2659,-5.12981,1099.99,372.111,0,0,0.00120473,0.0001817,0.00449454,1.74067,0.0572185,1.7434,0,0,1.01E+06,1.01E+06,0.0651181,0.0333415
270,0.172287,-2.5068,-3.68967,2.17577,1115.01,35.6479,-4.96894,1110.09,379.426,0,0,0.00120473,0.0001817,0.00132189,1.72883,0.063669,1.73144,0,0,1.01E+06,1.01E+06,0.0653252,0.0336539
271,0.169276,-2.5068,-3.68377,2.1824,1125.36,37.0299,-4.80807,1120.2,386.741,0,0,0.00120473,0.0001817,-0.00185077,1.71699,0.0701195,1.71949,0,0,1.01E+06,1.01E+06,0.0655323,0.0339662
272,0.166265,-2.5068,-3.67786,2.18903,1123.47,37.684,-3.64214,1118.67,394.684,0,0,0.00120473,0.0001817,-0.00478258,1.70723,0.0732182,1.70967,0,0,1.01E+06,1.01E+06,0.0647931,0.0339094
273,0.163253,-2.5068,-3.67196,2.19566,1124.24,39.7188,-3.31835,1119.85,404.56,0,0,0.00120473,0.0001817,-0.00750406,1.69955,0.0744444,1.70195,0,0,1.01E+06,1.01E+06,0.0644142,0.0339326
274,0.160242,-2.5068,-3.66605,2.20229,1116.93,40.2704,-2.40638,1114.43,414.918,0,0,0.00120473,0.0001817,-0.0106546,1.69555,0.0730051,1.69776,0,0,1.01E+06,1.01E+06,0.0632748,0.033712
275,0.157231,-2.5068,-3.66015,2.20892,1104.29,39.6804,-0.641253,1103.51,423.816,0,0,0.00120473,0.0001817,-0.0139588,1.68682,0.0707096,1.68887,0,0,1.01E+06,1.01E+06,0.0619795,0.0333303
276,0.15422,-2.5068,-3.65424,2.21555,1093.45,39.5743,1.24953,1092.64,431.048,0,0,0.00120473,0.0001817,-0.0170985,1.66607,0.067618,1.66819,0,0,1.01E+06,1.01E+06,0.0616969,0.0330031
277,0.151209,-2.5068,-3.64834,2.22218,1082.61,39.4683,3.14038,1081.76,438.281,0,0,0.00120473,0.0001817,-0.0202382,1.64531,0.0645264,1.64752,0,0,1.01E+06,1.01E+06,0.0614144,0.0326759
278,0.148198,-2.5068,-3.64243,2.2288,1076.67,39.4663,5.66097,1075.75,444.618,0,0,0.00120473,0.0001817,-0.0231462,1.62724,0.0631949,1.6297,0,0,1.01E+06,1.01E+06,0.0614128,0.0324966
279,0.145187,-2.5068,-3.63652,2.23543,1071.16,39.4735,8.23766,1070.18,450.875,0,0,0.00120473,0.0001817,-0.0260336,1.6094,0.0620201,1.61213,0,0,1.01E+06,1.01E+06,0.0614362,0.0323304
280,0.142176,-2.5068,-3.63062,2.24206,1065.66,39.4807,10.8143,1064.61,457.131,0,0,0.00120473,0.0001817,-0.028921,1.59156,0.0608454,1.59456,0,0,1.01E+06,1.01E+06,0.0614596,0.0321643
281,0.139165,-2.5068,-3.62471,2.24869,1060.15,39.4879,13.391,1059.03,463.388,0,0,0.00120473,0.0001817,-0.0318084,1.57372,0.0596706,1.57699,0,0,1.01E+06,1.01E+06,0.0614831,0.0319981
282,0.133253,-2.5068,-3.62156,2.25539,1048,38.6079,14.2638,1046.91,470.156,0,0,0.00120473,0.0001817,-0.0346304,1.54908,0.0535301,1.5522,0,0,1.01E+06,1.01E+06,0.060994,0.0316314
283,0.127342,-2.5068,-3.61841,2.26209,1035.85,37.7279,15.1367,1034.79,476.924,0,0,0.00120473,0.0001817,-0.0374524,1.52445,0.0473897,1.52741,0,0,1.01E+06,1.01E+06,0.0605049,0.0312648
284,0.121431,-2.5068,-3.61525,2.26879,1023.71,36.8479,16.0095,1022.66,483.691,0,0,0.00120473,0.0001817,-0.0402743,1.49982,0.0412492,1.50263,0,0,1.01E+06,1.01E+06,0.0600158,0.0308981
285,0.11552,-2.5068,-3.6121,2.27549,1011.56,35.9679,16.8822,1010.54,490.459,0,0,0.00120473,0.0001817,-0.0430963,1.47519,0.0351087,1.47784,0,0,1.01E+06,1.01E+06,0.0595267,0.0305315
286,0.109609,-2.5068,-3.60895,2.28219,1001.67,35.1358,18.0454,1000.66,496.814,0,0,0.00120473,0.0001817,-0.0458115,1.45179,0.0297796,1.45436,0,0,1.01E+06,1.01E+06,0.0591671,0.030233
287,0.103697,-2.5068,-3.60579,2.28889,994.154,34.3542,19.5138,993.139,502.735,0,0,0.00120473,0.0001817,-0.0484145,1.42968,0.0253035,1.43227,0,0,1.01E+06,1.01E+06,0.0589437,0.0300062
288,0.0977863,-2.5068,-3.60264,2.29559,986.639,33.5725,20.9822,985.618,508.655,0,0,0.00120473,0.0001817,-0.0510174,1.40758,0.0208274,1.41018,0,0,1.01E+06,1.01E+06,0.0587203,0.0297793
289,0.0918751,-2.5068,-3.59949,2.30229,979.124,32.7908,22.4505,978.097,514.576,0,0,0.00120473,0.0001817,-0.0536203,1.38548,0.0163514,1.38809,0,0,1.01E+06,1.01E+06,0.0584969,0.0295525
290,0.0859639,-2.5068,-3.59634,2.30899,971.609,32.0092,23.9189,970.576,520.496,0,0,0.00120473,0.0001817,-0.0562233,1.36338,0.0118753,1.36599,0,0,1.01E+06,1.01E+06,0.0582735,0.0293257
291,0.0800527,-2.5068,-3.59318,2.31569,972.75,30.2644,27.5389,971.611,518.311,0,0,0.00120473,0.0001817,-0.0561,1.37459,0.0048265,1.37703,0,0,1.01E+06,1.01E+06,0.0574775,0.0293601
292,0.0741415,-2.5068,-3.59003,2.32239,974.174,28.4881,31.2294,972.926,515.86,0,0,0.00120473,0.0001817,-0.0558872,1.3869,-0.0023066,1.38916,0,0,1.01E+06,1.01E+06,0.0566628,0.0294031
293,0.0682304,-2.5068,-3.58688,2.32909,975.599,26.7118,34.9201,974.242,513.409,0,0,0.00120473,0.0001817,-0.0556745,1.39921,-0.00943979,1.40128,0,0,1.01E+06,1.01E+06,0.055848,0.0294461
294,0.0623192,-2.5068,-3.58372,2.33578,977.024,24.9355,38.6106,975.557,510.957,0,0,0.00120473,0.0001817,-0.0554617,1.41152,-0.0165729,1.4134,0,0,1.01E+06,1.01E+06,0.0550332,0.0294891
295,0.056408,-2.5068,-3.58057,2.34248,978.448,23.1591,42.3011,976.872,508.506,0,0,0.00120473,0.0001817,-0.055249,1.42383,-0.023706,1.42553,0,0,1.01E+06,1.01E+06,0.0542184,0.0295321
296,0.0504968,-2.5068,-3.57742,2.34918,979.873,21.3828,45.9917,978.187,506.055,0,0,0.00120473,0.0001817,-0.0550363,1.43614,-0.0308392,1.43765,0,0,1.01E+06,1.01E+06,0.0534036,0.0295751
297,0.0445856,-2.5068,-3.57426,2.35588,981.405,20.0556,46.2506,979.64,508.962,0,0,0.00120473,0.0001817,-0.0527742,1.42437,-0.0316084,1.42584,0,0,1.01E+06,1.01E+06,0.0543302,0.0296214
298,0.0386744,-2.5068,-3.57111,2.36258,982.63,18.55,45.7681,980.815,514.357,0,0,0.00120473,0.0001817,-0.0503983,1.41052,-0.0325855,1.41198,0,0,1.01E+06,1.01E+06,0.0553434,0.0296583
299,0.0327632,-2.5068,-3.56796,2.36928,983.854,17.0443,45.2856,981.99,519.752,0,0,0.00120473,0.0001817,-0.0480224,1.39667,-0.0335626,1.39811,0,0,1.01E+06,1.01E+06,0.0563566,0.0296953
300,0.026852,-2.5068,-3.5648,2.37598,985.079,15.5386,44.8031,983.165,525.147,0,0,0.00120473,0.0001817,-0.0456465,1.38282,-0.0345399,1.38425,0,0,1.01E+06,1.01E+06,0.0573698,0.0297322
301,0.0209409,-2.5068,-3.56165,2.38268,986.303,14.033,44.3206,984.34,530.542,0,0,0.00120473,0.0001817,-0.0432706,1.36897,-0.035517,1.37039,0,0,1.01E+06,1.01E+06,0.058383,0.0297692
302,0.0125076,-2.5068,-3.56568,2.39203,997.336,13.3184,44.6899,995.23,519.152,0,0,0.00120473,0.0001817,-0.0391181,1.35541,-0.0315711,1.35658,0,0,1.01E+06,1.01E+06,0.0600836,0.0301022
303,0.00407442,-2.5068,-3.5697,2.40137,1008.37,12.6038,45.0592,1006.12,507.763,0,0,0.00120473,0.0001817,-0.0349656,1.34186,-0.0276253,1.34278,0,0,1.01E+06,1.01E+06,0.0617842,0.0304352
304,-0.0043588,-2.5068,-3.57373,2.41072,1015.41,10.9282,44.2943,1013.18,506.175,0,0,0.00120473,0.0001817,-0.0327287,1.34513,-0.0285874,1.34602,0,0,1.01E+06,1.01E+06,0.0622595,0.0306478
305,-0.012792,-2.5068,-3.57776,2.42006,1016.7,8.84519,45.2591,1014.58,508.212,0,0,0.00120473,0.0001817,-0.034325,1.38747,-0.0350958,1.38858,0,0,1.01E+06,1.01E+06,0.0603736,0.0306868
306,-0.0212252,-2.5068,-3.58178,2.42941,1017.99,6.76217,46.2238,1015.98,510.249,0,0,0.00120473,0.0001817,-0.0359214,1.4298,-0.0416043,1.43114,0,0,1.01E+06,1.01E+06,0.0584876,0.0307257
307,-0.0296585,-2.5068,-3.58581,2.43875,1019.29,4.67914,47.1884,1017.38,512.285,0,0,0.00120473,0.0001817,-0.0375177,1.47214,-0.0481127,1.4737,0,0,1.01E+06,1.01E+06,0.0566016,0.0307647
308,-0.0380917,-2.5068,-3.58983,2.4481,1020.58,2.59613,48.1532,1018.79,514.322,0,0,0.00120473,0.0001817,-0.0391141,1.51448,-0.0546211,1.51626,0,0,1.01E+06,1.01E+06,0.0547157,0.0308037
309,-0.0465249,-2.5068,-3.59386,2.45744,1021.89,0.508982,48.7421,1020.21,516.768,0,0,0.00120473,0.0001817,-0.0405852,1.55151,-0.0609671,1.55352,0,0,1.01E+06,1.01E+06,0.0531175,0.0308434
310,-0.0549581,-2.5068,-3.59789,2.46679,1027.36,-1.54604,47.1785,1025.74,519.582,0,0,0.00120473,0.0001817,-0.0409971,1.54595,-0.0648379,1.54816,0,0,1.01E+06,1.01E+06,0.0543431,0.0310084
311,-0.0633913,-2.5068,-3.60191,2.47613,1039.3,-3.48207,48.0357,1037.67,516.476,0,0,0.00120473,0.0001817,-0.0416489,1.55439,-0.0671945,1.55668,0,0,1.01E+06,1.01E+06,0.0556628,0.0313689
312,-0.0718246,-2.5068,-3.60594,2.48548,1051.25,-5.4181,48.8929,1049.61,513.37,0,0,0.00120473,0.0001817,-0.0423007,1.56283,-0.0695511,1.5652,0,0,1.01E+06,1.01E+06,0.0569824,0.0317294
313,-0.0802578,-2.5068,-3.60997,2.49482,1063.19,-7.35413,49.7502,1061.54,510.265,0,0,0.00120473,0.0001817,-0.0429526,1.57127,-0.0719078,1.57371,0,0,1.01E+06,1.01E+06,0.058302,0.0320899
314,-0.088691,-2.5068,-3.61399,2.50417,1075.14,-9.29015,50.6074,1073.48,507.159,0,0,0.00120473,0.0001817,-0.0436044,1.57972,-0.0742645,1.58223,0,0,1.01E+06,1.01E+06,0.0596217,0.0324504
315,-0.0971242,-2.5068,-3.61802,2.51351,1087.08,-11.2262,51.4647,1085.42,504.053,0,0,0.00120473,0.0001817,-0.0442563,1.58816,-0.0766212,1.59075,0,0,1.01E+06,1.01E+06,0.0609413,0.032811
316,-0.105557,-2.5068,-3.62205,2.52286,1098.16,-13.2667,52.0785,1096.48,500.875,0,0,0.00120473,0.0001817,-0.0445899,1.59176,-0.0780688,1.59447,0,0,1.01E+06,1.01E+06,0.0624994,0.0331452
317,-0.113991,-2.5068,-3.62607,2.5322,1108.9,-15.347,52.5999,1107.2,497.67,0,0,0.00120473,0.0001817,-0.0448027,1.59352,-0.0791714,1.59637,0,0,1.01E+06,1.01E+06,0.0641482,0.0334694
318,-0.122424,-2.5068,-3.6301,2.54155,1121.06,-17.832,52.844,1119.32,493.958,0,0,0.00120473,0.0001817,-0.0434924,1.58306,-0.0786529,1.58619,0,0,1.01E+06,1.01E+06,0.0665945,0.0338365
319,-0.130857,-2.5068,-3.63412,2.55089,1139.35,-22.0623,51.8919,1137.42,488.06,0,0,0.00120473,0.0001817,-0.0356153,1.51988,-0.0711448,1.5239,0,0,1.01E+06,1.01E+06,0.0724801,0.0343887
320,-0.13929,-2.5068,-3.63815,2.56024,1157.65,-26.2926,50.9399,1155.53,482.162,0,0,0.00120473,0.0001817,-0.027738,1.4567,-0.0636366,1.4616,0,0,1.01E+06,1.01E+06,0.0783657,0.0349409
321,-0.147724,-2.5068,-3.64218,2.56958,1175.94,-30.5228,49.9878,1173.63,476.264,0,0,0.00120473,0.0001817,-0.0198609,1.39352,-0.0561285,1.39931,0,0,1.01E+06,1.01E+06,0.0842513,0.0354931
322,-0.146705,-2.5068,-3.65064,2.57811,1178.78,-28.7309,48.291,1176.7,472.705,0,0,0.00120473,0.0001817,-0.0253273,1.4335,-0.0591698,1.43865,0,0,1.01E+06,1.01E+06,0.0821111,0.0355785
323,-0.145686,-2.5068,-3.65911,2.58664,1181.61,-26.9389,46.5942,1179.77,469.146,0,0,0.00120473,0.0001817,-0.0307938,1.47348,-0.0622111,1.47798,0,0,1.01E+06,1.01E+06,0.079971,0.035664
324,-0.144668,-2.5068,-3.66758,2.59517,1184.44,-25.1469,44.8975,1182.83,465.587,0,0,0.00120473,0.0001817,-0.0362603,1.51346,-0.0652525,1.51732,0,0,1.01E+06,1.01E+06,0.0778308,0.0357495
325,-0.143649,-2.5068,-3.67605,2.6037,1187.96,-23.5519,43.0656,1186.58,461.781,0,0,0.00120473,0.0001817,-0.0409853,1.54748,-0.0675047,1.55077,0,0,1.01E+06,1.01E+06,0.076079,0.0358559
326,-0.142631,-2.5068,-3.68451,2.61222,1196.99,-23.5229,40.1606,1195.7,456.014,0,0,0.00120473,0.0001817,-0.0398182,1.53421,-0.0634853,1.53747,0,0,1.01E+06,1.01E+06,0.077413,0.0361283
327,-0.141612,-2.5068,-3.69298,2.62075,1206.02,-23.4939,37.2555,1204.81,450.247,0,0,0.00120473,0.0001817,-0.0386511,1.52093,-0.0594661,1.52416,0,0,1.01E+06,1.01E+06,0.078747,0.0364007
328,-0.140593,-2.5068,-3.70145,2.62928,1215.04,-23.4649,34.3505,1213.93,444.48,0,0,0.00120473,0.0001817,-0.037484,1.50766,-0.0554468,1.51086,0,0,1.01E+06,1.01E+06,0.080081,0.0366731
329,-0.139575,-2.5068,-3.70991,2.63781,1219.17,-21.9602,33.5893,1215.9,433.473,0,0,0.00120473,0.0001817,-0.0380389,1.50085,-0.0531746,1.50402,0,0,1.01E+06,1.01E+06,0.0806843,0.0367976
330,-0.138556,-2.5068,-3.71838,2.64634,1218.58,-19.037,34.8889,1211.01,417.429,0,0,0.00120473,0.0001817,-0.040249,1.50025,-0.0525818,1.50338,0,0,1.01E+06,1.01E+06,0.0805853,0.0367798
331,-0.137538,-2.5068,-3.72685,2.65486,1229.26,-19.3799,32.5159,1220.78,406.274,0,0,0.00120473,0.0001817,-0.0392171,1.50374,-0.0491315,1.5069,0,0,1.01E+06,1.01E+06,0.0829004,0.0371022
332,-0.136519,-2.5068,-3.73531,2.66339,1240.54,-19.8967,29.9474,1231.33,395.379,0,0,0.00120473,0.0001817,-0.0380125,1.50744,-0.045529,1.51063,0,0,1.01E+06,1.01E+06,0.085344,0.0374427
333,-0.135501,-2.5068,-3.74378,2.67192,1251.82,-20.4136,27.3788,1241.87,384.485,0,0,0.00120473,0.0001817,-0.0368078,1.51114,-0.0419265,1.51436,0,0,1.01E+06,1.01E+06,0.0877876,0.0377832
334,-0.134482,-2.5068,-3.75225,2.68045,1259.59,-20.6103,24.7997,1249.43,372.977,0,0,0.00120473,0.0001817,-0.0366821,1.52186,-0.0390307,1.52506,0,0,1.01E+06,1.01E+06,0.0893243,0.0380177
335,-0.133463,-2.5068,-3.76071,2.68898,1257.28,-19.8874,22.1903,1248.37,359.706,0,0,0.00120473,0.0001817,-0.0396556,1.55273,-0.038165,1.55578,0,0,1.01E+06,1.01E+06,0.0882554,0.037948
336,-0.132445,-2.5068,-3.76918,2.6975,1254.97,-19.1644,19.5809,1247.31,346.435,0,0,0.00120473,0.0001817,-0.0426292,1.58361,-0.0372993,1.5865,0,0,1.01E+06,1.01E+06,0.0871865,0.0378783
337,-0.131426,-2.5068,-3.77765,2.70603,1252.66,-18.4415,16.9714,1246.26,333.163,0,0,0.00120473,0.0001817,-0.0456028,1.61448,-0.0364335,1.61722,0,0,1.01E+06,1.01E+06,0.0861175,0.0378086
338,-0.130408,-2.5068,-3.78612,2.71456,1250.35,-17.7185,14.362,1245.2,319.892,0,0,0.00120473,0.0001817,-0.0485763,1.64535,-0.0355678,1.64794,0,0,1.01E+06,1.01E+06,0.0850486,0.0377389
339,-0.129389,-2.5068,-3.79458,2.72309,1248.04,-16.9956,11.7525,1244.15,306.621,0,0,0.00120473,0.0001817,-0.0515499,1.67622,-0.0347021,1.67866,0,0,1.01E+06,1.01E+06,0.0839797,0.0376692
340,-0.128371,-2.5068,-3.80305,2.73162,1245.73,-16.2727,9.14312,1243.09,293.35,0,0,0.00120473,0.0001817,-0.0545234,1.70709,-0.0338363,1.70938,0,0,1.01E+06,1.01E+06,0.0829108,0.0375994
341,-0.127352,-2.5068,-3.81152,2.74014,1243.42,-15.5497,6.5337,1242.04,280.079,0,0,0.00120473,0.0001817,-0.0574969,1.73797,-0.0329706,1.7401,0,0,1.01E+06,1.01E+06,0.0818419,0.0375297
342,-0.121526,-2.5068,-3.81288,2.74613,1250.2,-15.2225,4.81421,1247.58,280.137,0,0,0.00120473,0.0001817,-0.0540602,1.71699,-0.02866,1.71915,0,0,1.01E+06,1.01E+06,0.0839302,0.0377342
343,-0.115699,-2.5068,-3.81424,2.75211,1256.97,-14.8952,3.09472,1253.11,280.194,0,0,0.00120473,0.0001817,-0.0506234,1.69601,-0.0243494,1.6982,0,0,1.01E+06,1.01E+06,0.0860185,0.0379387
344,-0.109873,-2.5068,-3.8156,2.75809,1263.75,-14.568,1.37523,1258.65,280.252,0,0,0.00120473,0.0001817,-0.0471867,1.67503,-0.0200388,1.67725,0,0,1.01E+06,1.01E+06,0.0881068,0.0381432
345,-0.104047,-2.5068,-3.81696,2.76408,1270.53,-14.2407,-0.344265,1264.19,280.31,0,0,0.00120473,0.0001817,-0.0437499,1.65406,-0.0157282,1.6563,0,0,1.01E+06,1.01E+06,0.0901951,0.0383477
346,-0.0982206,-2.5068,-3.81832,2.77006,1277.3,-13.9135,-2.06376,1269.73,280.367,0,0,0.00120473,0.0001817,-0.0403132,1.63308,-0.0114176,1.63535,0,0,1.01E+06,1.01E+06,0.0922834,0.0385523
347,-0.0923944,-2.5068,-3.81968,2.77604,1284.08,-13.5862,-3.78325,1275.27,280.425,0,0,0.00120473,0.0001817,-0.0368765,1.6121,-0.00710705,1.6144,0,0,1.01E+06,1.01E+06,0.0943717,0.0387568
348,-0.0865681,-2.5068,-3.82104,2.78203,1290.85,-13.259,-5.50274,1280.81,280.483,0,0,0.00120473,0.0001817,-0.0334397,1.59113,-0.00279645,1.59345,0,0,1.01E+06,1.01E+06,0.09646,0.0389613
349,-0.0807418,-2.5068,-3.8224,2.78801,1297.63,-12.9317,-7.22223,1286.35,280.54,0,0,0.00120473,0.0001817,-0.030003,1.57015,0.00151413,1.5725,0,0,1.01E+06,1.01E+06,0.0985483,0.0391658
350,-0.0749155,-2.5068,-3.82376,2.79399,1304.4,-12.6045,-8.94172,1291.89,280.598,0,0,0.00120473,0.0001817,-0.0265662,1.54917,0.00582473,1.55155,0,0,1.01E+06,1.01E+06,0.100637,0.0393703
351,-0.0690893,-2.5068,-3.82513,2.79998,1311.18,-12.2773,-10.6612,1297.43,280.656,0,0,0.00120473,0.0001817,-0.0231295,1.52819,0.0101353,1.5306,0,0,1.01E+06,1.01E+06,0.102725,0.0395748
352,-0.063263,-2.5068,-3.82649,2.80596,1317.95,-11.95,-12.3807,1302.97,280.714,0,0,0.00120473,0.0001817,-0.0196927,1.50722,0.0144459,1.50965,0,0,1.01E+06,1.01E+06,0.104813,0.0397793
353,-0.0574367,-2.5068,-3.82785,2.81194,1320.51,-11.2376,-14.1129,1304.91,280.033,0,0,0.00120473,0.0001817,-0.0175538,1.49468,0.0179064,1.49708,0,0,1.01E+06,1.01E+06,0.10581,0.0398564
354,-0.0516104,-2.5068,-3.82921,2.81792,1318.71,-10.1284,-15.8582,1303.13,278.591,0,0,0.00120473,0.0001817,-0.0167524,1.49084,0.0204908,1.49315,0,0,1.01E+06,1.01E+06,0.105683,0.0398021
355,-0.0457841,-2.5068,-3.83057,2.82391,1316.92,-9.01919,-17.6034,1301.35,277.15,0,0,0.00120473,0.0001817,-0.015951,1.487,0.0230752,1.48922,0,0,1.01E+06,1.01E+06,0.105556,0.0397479
356,-0.0399579,-2.5068,-3.83193,2.82989,1315.12,-7.90996,-19.3487,1299.57,275.709,0,0,0.00120473,0.0001817,-0.0151496,1.48316,0.0256596,1.48529,0,0,1.01E+06,1.01E+06,0.105429,0.0396937
357,-0.0341316,-2.5068,-3.83329,2.83587,1312.62,-6.94803,-20.6902,1297.53,273.918,0,0,0.00120473,0.0001817,-0.014452,1.47885,0.0274573,1.48086,0,0,1.01E+06,1.01E+06,0.105114,0.0396184
358,-0.0283053,-2.5068,-3.83465,2.84186,1304.2,-7.23732,-18.6019,1293.29,269.167,0,0,0.00120473,0.0001817,-0.014636,1.47063,0.0225725,1.47218,0,0,1.01E+06,1.01E+06,0.103205,0.0393643
359,-0.022479,-2.5068,-3.83601,2.84784,1295.78,-7.52662,-16.5136,1289.05,264.416,0,0,0.00120473,0.0001817,-0.0148199,1.4624,0.0176876,1.46351,0,0,1.01E+06,1.01E+06,0.101297,0.0391101
360,-0.0166528,-2.5068,-3.83737,2.85382,1287.36,-7.81591,-14.4253,1284.81,259.664,0,0,0.00120473,0.0001817,-0.0150039,1.45418,0.0128027,1.45483,0,0,1.01E+06,1.01E+06,0.0993887,0.038856
361,-0.0108265,-2.5068,-3.83873,2.85981,1289.31,-9.28115,-14.6571,1285.51,256.731,0,0,0.00120473,0.0001817,-0.0141926,1.45251,0.00619677,1.45326,0,0,1.01E+06,1.01E+06,0.0997296,0.0389147
362,-0.00560465,-2.5068,-3.83524,2.86609,1288.93,-10.2171,-15.1095,1281.91,261.481,0,0,0.00120473,0.0001817,-0.0135623,1.45142,-0.000355574,1.45248,0,0,1.01E+06,1.01E+06,0.0996813,0.0389033
363,-0.000382807,-2.5068,-3.83174,2.87238,1288.56,-11.1531,-15.5618,1278.31,266.232,0,0,0.00120473,0.0001817,-0.0129321,1.45033,-0.00690791,1.4517,0,0,1.01E+06,1.01E+06,0.099633,0.0388919
364,0.00483904,-2.5068,-3.82824,2.87866,1288.18,-12.0891,-16.0142,1274.71,270.982,0,0,0.00120473,0.0001817,-0.0123018,1.44924,-0.0134603,1.45092,0,0,1.01E+06,1.01E+06,0.0995847,0.0388806
365,0.0100609,-2.5068,-3.82474,2.88495,1287.8,-13.0252,-16.4666,1271.11,275.733,0,0,0.00120473,0.0001817,-0.0116716,1.44815,-0.0200126,1.45014,0,0,1.01E+06,1.01E+06,0.0995364,0.0388692
366,0.0152827,-2.5068,-3.82124,2.89123,1287.43,-13.9612,-16.919,1267.51,280.483,0,0,0.00120473,0.0001817,-0.0110413,1.44705,-0.0265649,1.44936,0,0,1.01E+06,1.01E+06,0.0994881,0.0388579
367,0.0205046,-2.5068,-3.81774,2.89752,1281.52,-12.9289,-16.9501,1261.12,284.366,0,0,0.00120473,0.0001817,-0.00941696,1.45292,-0.0285717,1.4553,0,0,1.01E+06,1.01E+06,0.0982189,0.0386797
368,0.0257264,-2.5068,-3.81424,2.90381,1273.15,-11.0195,-16.7936,1253.49,287.863,0,0,0.00120473,0.0001817,-0.00734949,1.4619,-0.0285527,1.46422,0,0,1.01E+06,1.01E+06,0.0964056,0.0384271
369,0.0309483,-2.5068,-3.81074,2.91009,1264.79,-9.11009,-16.6371,1245.86,291.36,0,0,0.00120473,0.0001817,-0.00528203,1.47087,-0.0285336,1.47315,0,0,1.01E+06,1.01E+06,0.0945923,0.0381746
370,0.0361701,-2.5068,-3.80724,2.91638,1256.42,-7.20066,-16.4805,1238.23,294.857,0,0,0.00120473,0.0001817,-0.00321457,1.47984,-0.0285145,1.48208,0,0,1.01E+06,1.01E+06,0.092779,0.037922
371,0.0413919,-2.5068,-3.80374,2.92266,1248.05,-5.29129,-16.3241,1230.6,298.353,0,0,0.00120473,0.0001817,-0.00114708,1.48881,-0.0284955,1.49101,0,0,1.01E+06,1.01E+06,0.0909658,0.0376695
372,0.0466138,-2.5068,-3.80025,2.92895,1239.68,-3.38186,-16.1675,1222.97,301.85,0,0,0.00120473,0.0001817,0.000920379,1.49779,-0.0284764,1.49993,0,0,1.01E+06,1.01E+06,0.0891525,0.0374169
373,0.0518356,-2.5068,-3.79675,2.93524,1231.32,-1.47244,-16.011,1215.34,305.347,0,0,0.00120473,0.0001817,0.00298784,1.50676,-0.0284573,1.50886,0,0,1.01E+06,1.01E+06,0.0873391,0.0371643
374,0.0570575,-2.5068,-3.79325,2.94152,1222.95,0.436983,-15.8544,1207.71,308.843,0,0,0.00120473,0.0001817,0.0050553,1.51573,-0.0284383,1.51779,0,0,1.01E+06,1.01E+06,0.0855258,0.0369118
375,0.0622793,-2.5068,-3.78975,2.94781,1214.58,2.34641,-15.6979,1200.08,312.34,0,0,0.00120473,0.0001817,0.00712276,1.5247,-0.0284192,1.52671,0,0,1.01E+06,1.01E+06,0.0837125,0.0366592
376,0.0675012,-2.5068,-3.78625,2.95409,1206.21,4.25583,-15.5414,1192.45,315.837,0,0,0.00120473,0.0001817,0.00919022,1.53367,-0.0284001,1.53564,0,0,1.01E+06,1.01E+06,0.0818992,0.0364067
377,0.072723,-2.5068,-3.78275,2.96038,1197.85,6.16526,-15.3848,1184.82,319.334,0,0,0.00120473,0.0001817,0.0112577,1.54265,-0.0283811,1.54457,0,0,1.01E+06,1.01E+06,0.0800859,0.0361541
378,0.0779448,-2.5068,-3.77925,2.96666,1189.48,8.07463,-15.2284,1177.19,322.83,0,0,0.00120473,0.0001817,0.0133252,1.55162,-0.028362,1.5535,0,0,1.01E+06,1.01E+06,0.0782727,0.0359016
379,0.0831667,-2.5068,-3.77575,2.97295,1181.8,9.92687,-15.0683,1170.19,326.11,0,0,0.00120473,0.0001817,0.0151607,1.56072,-0.0278707,1.56256,0,0,1.01E+06,1.01E+06,0.0766073,0.0356697
380,0.0883885,-2.5068,-3.77225,2.97924,1180.27,11.2656,-14.8768,1168.86,327.441,0,0,0.00120473,0.0001817,0.014913,1.571,-0.0231384,1.57289,0,0,1.01E+06,1.01E+06,0.0762707,0.0356235
381,0.0936104,-2.5068,-3.76875,2.98552,1178.73,12.6043,-14.6852,1167.54,328.772,0,0,0.00120473,0.0001817,0.0146653,1.58129,-0.0184061,1.58322,0,0,1.01E+06,1.01E+06,0.0759341,0.0355773
382,0.0895503,-2.5068,-3.7644,2.99148,1174.23,12.6453,-13.4297,1163.47,335.681,0,0,0.00120473,0.0001817,0.0121755,1.57042,-0.0177637,1.5723,0,0,1.01E+06,1.01E+06,0.0751133,0.0354414
383,0.0854903,-2.5068,-3.76004,2.99743,1169.73,12.6863,-12.1742,1159.39,342.591,0,0,0.00120473,0.0001817,0.00968566,1.55956,-0.0171211,1.56137,0,0,1.01E+06,1.01E+06,0.0742925,0.0353056
384,0.0814302,-2.5068,-3.75569,3.00338,1165.23,12.7273,-10.9187,1155.31,349.5,0,0,0.00120473,0.0001817,0.00719591,1.54869,-0.0164787,1.55045,0,0,1.01E+06,1.01E+06,0.0734718,0.0351697
385,0.0773702,-2.5068,-3.75133,3.00934,1160.73,12.7683,-9.6632,1151.24,356.41,0,0,0.00120473,0.0001817,0.00470606,1.53782,-0.0158361,1.53952,0,0,1.01E+06,1.01E+06,0.072651,0.0350338
386,0.0733101,-2.5068,-3.74698,3.01529,1156.23,12.8093,-8.40772,1147.16,363.319,0,0,0.00120473,0.0001817,0.0022163,1.52696,-0.0151937,1.5286,0,0,1.01E+06,1.01E+06,0.0718303,0.034898
387,0.0692501,-2.5068,-3.74262,3.02125,1151.73,12.8503,-7.15224,1143.08,370.228,0,0,0.00120473,0.0001817,-0.000273452,1.51609,-0.0145513,1.51767,0,0,1.01E+06,1.01E+06,0.0710095,0.0347622
388,0.06519,-2.5068,-3.73827,3.0272,1147.23,12.8913,-5.89672,1139.01,377.138,0,0,0.00120473,0.0001817,-0.0027633,1.50523,-0.0139087,1.50675,0,0,1.01E+06,1.01E+06,0.0701887,0.0346263
389,0.06113,-2.5068,-3.73391,3.03315,1142.73,12.9323,-4.64124,1134.93,384.047,0,0,0.00120473,0.0001817,-0.00525305,1.49436,-0.0132662,1.49582,0,0,1.01E+06,1.01E+06,0.069368,0.0344904
390,0.0570699,-2.5068,-3.72956,3.03911,1138.23,12.9733,-3.38571,1130.85,390.956,0,0,0.00120473,0.0001817,-0.0077429,1.4835,-0.0126237,1.4849,0,0,1.01E+06,1.01E+06,0.0685472,0.0343546
391,0.0530099,-2.5068,-3.7252,3.04506,1133.72,13.0143,-2.13023,1126.78,397.866,0,0,0.00120473,0.0001817,-0.0102327,1.47263,-0.0119812,1.47397,0,0,1.01E+06,1.01E+06,0.0677264,0.0342187
392,0.0489498,-2.5068,-3.72085,3.05102,1129.22,13.0553,-0.874754,1122.7,404.775,0,0,0.00120473,0.0001817,-0.0127224,1.46177,-0.0113388,1.46305,0,0,1.01E+06,1.01E+06,0.0669057,0.0340829
393,0.0448898,-2.5068,-3.71649,3.05697,1124.72,13.0963,0.380771,1118.62,411.684,0,0,0.00120473,0.0001817,-0.0152123,1.4509,-0.0106962,1.45212,0,0,1.01E+06,1.01E+06,0.0660849,0.033947
394,0.0408297,-2.5068,-3.71214,3.06292,1120.22,13.1373,1.63625,1114.55,418.594,0,0,0.00120473,0.0001817,-0.017702,1.44003,-0.0100538,1.4412,0,0,1.01E+06,1.01E+06,0.0652641,0.0338112
395,0.0367697,-2.5068,-3.70778,3.06888,1115.72,13.1783,2.89178,1110.47,425.503,0,0,0.00120473,0.0001817,-0.0201919,1.42917,-0.0094112,1.43027,0,0,1.01E+06,1.01E+06,0.0644433,0.0336753
396,0.0327096,-2.5068,-3.70343,3.07483,1111.22,13.2193,4.14725,1106.39,432.412,0,0,0.00120473,0.0001817,-0.0226816,1.4183,-0.00876877,1.41935,0,0,1.01E+06,1.01E+06,0.0636226,0.0335395
397,0.0286496,-2.5068,-3.69907,3.08079,1114.56,15.2586,3.97682,1109.99,441.511,0,0,0.00120473,0.0001817,-0.0249968,1.40927,-0.00923438,1.41028,0,0,1.01E+06,1.01E+06,0.0636024,0.0336403
398,0.0245895,-2.5068,-3.69472,3.08674,1110.63,15.8359,4.53137,1107.37,450.434,0,0,0.00120473,0.0001817,-0.0276426,1.40231,-0.01125,1.40317,0,0,1.01E+06,1.01E+06,0.0628839,0.0335218
399,0.0205295,-2.5068,-3.69036,3.09269,1099.85,14.8964,5.97868,1098.56,458.545,0,0,0.00120473,0.0001817,-0.0305414,1.396,-0.0138306,1.39662,0,0,1.01E+06,1.01E+06,0.0614907,0.0331962
400,0.0164694,-2.5068,-3.68601,3.09865,1094.42,14.0489,7.16407,1094.16,463.356,0,0,0.00120473,0.0001817,-0.0310467,1.38856,-0.0147744,1.38904,0,0,1.01E+06,1.01E+06,0.0611792,0.0330323
401,0.0124094,-2.5068,-3.68165,3.1046,1093.91,13.3236,8.32484,1093.54,464.826,0,0,0.00120473,0.0001817,-0.02958,1.37954,-0.0148719,1.37999,0,0,1.01E+06,1.01E+06,0.0618688,0.033017
402,0.0092315,-2.5068,-3.68328,3.10817,1097.64,12.7137,7.54156,1097.26,464.074,0,0,0.00120473,0.0001817,-0.0280216,1.3734,-0.0143476,1.3738,0,0,1.01E+06,1.01E+06,0.0624815,0.0331296
403,0.00605364,-2.5068,-3.68491,3.11174,1099.73,12.0126,7.33339,1099.38,464.087,0,0,0.00120473,0.0001817,-0.0275782,1.37873,-0.0153597,1.37915,0,0,1.01E+06,1.01E+06,0.062409,0.0331928
404,0.00287578,-2.5068,-3.68654,3.11531,1100.16,11.1811,7.7063,1099.84,464.462,0,0,0.00120473,0.0001817,-0.028051,1.39382,-0.0173228,1.39434,0,0,1.01E+06,1.01E+06,0.061773,0.0332056
405,-0.000302079,-2.5068,-3.68817,3.11889,1099.07,9.88631,8.52766,1098.75,461.193,0,0,0.00120473,0.0001817,-0.0272339,1.39921,-0.0143152,1.39999,0,0,1.01E+06,1.01E+06,0.0619249,0.0331729
406,-0.00347994,-2.5068,-3.6898,3.12246,1102.44,9.02147,8.79038,1102.11,459.604,0,0,0.00120473,0.0001817,-0.027164,1.40047,-0.0141631,1.40133,0,0,1.01E+06,1.01E+06,0.0624901,0.0332745
407,-0.00665779,-2.5068,-3.69143,3.12603,1106.62,8.23481,8.9515,1106.28,458.319,0,0,0.00120473,0.0001817,-0.02723,1.40097,-0.0145302,1.40189,0,0,1.01E+06,1.01E+06,0.0631305,0.0334006
408,-0.00983565,-2.5068,-3.69305,3.1296,1110.79,7.44816,9.11263,1110.45,457.035,0,0,0.00120473,0.0001817,-0.027296,1.40147,-0.0148973,1.40244,0,0,1.01E+06,1.01E+06,0.0637708,0.0335266
409,-0.0130135,-2.5068,-3.69468,3.13317,1114.97,6.6615,9.27376,1114.62,455.75,0,0,0.00120473,0.0001817,-0.0273619,1.40197,-0.0152644,1.403,0,0,1.01E+06,1.01E+06,0.0644112,0.0336527
410,-0.0161914,-2.5068,-3.69631,3.13674,1119.15,5.87484,9.43489,1118.8,454.466,0,0,0.00120473,0.0001817,-0.0274279,1.40248,-0.0156316,1.40355,0,0,1.01E+06,1.01E+06,0.0650515,0.0337787
411,-0.0193692,-2.5068,-3.69794,3.14031,1123.32,5.08819,9.59609,1122.97,453.182,0,0,0.00120473,0.0001817,-0.0274939,1.40298,-0.0159988,1.40411,0,0,1.01E+06,1.01E+06,0.0656919,0.0339048
412,-0.0225471,-2.5068,-3.69957,3.14388,1127.5,4.30153,9.75722,1127.14,451.897,0,0,0.00120473,0.0001817,-0.0275599,1.40348,-0.0163659,1.40466,0,0,1.01E+06,1.01E+06,0.0663322,0.0340308
413,-0.0257249,-2.5068,-3.7012,3.14745,1130.43,3.88815,10.4606,1129.5,449.287,0,0,0.00120473,0.0001817,-0.0280614,1.40562,-0.0171749,1.40685,0,0,1.01E+06,1.01E+06,0.0667877,0.0341194
414,-0.0289028,-2.5068,-3.70283,3.15102,1132.94,3.60308,11.3504,1131.25,446.222,0,0,0.00120473,0.0001817,-0.0287127,1.40832,-0.0181359,1.4096,0,0,1.01E+06,1.01E+06,0.0671797,0.0341952
415,-0.0320807,-2.5068,-3.70445,3.15459,1135.45,3.31802,12.2403,1132.99,443.156,0,0,0.00120473,0.0001817,-0.029364,1.41102,-0.0190968,1.41235,0,0,1.01E+06,1.01E+06,0.0675717,0.034271
416,-0.0352585,-2.5068,-3.70608,3.15816,1137.96,3.03296,13.1301,1134.74,440.091,0,0,0.00120473,0.0001817,-0.0300153,1.41372,-0.0200578,1.4151,0,0,1.01E+06,1.01E+06,0.0679637,0.0343467
417,-0.0384364,-2.5068,-3.70771,3.16174,1140.48,2.74789,14.0199,1136.48,437.025,0,0,0.00120473,0.0001817,-0.0306666,1.41641,-0.0210187,1.41785,0,0,1.01E+06,1.01E+06,0.0683557,0.0344225
418,-0.0416142,-2.5068,-3.70934,3.16531,1143.44,2.32974,14.7601,1138.82,434.159,0,0,0.00120473,0.0001817,-0.0311858,1.41928,-0.0218633,1.42077,0,0,1.01E+06,1.01E+06,0.0688461,0.0345121
419,-0.0447921,-2.5068,-3.71097,3.16888,1147.77,1.51995,15.0599,1142.92,431.879,0,0,0.00120473,0.0001817,-0.0313162,1.42264,-0.0223651,1.42419,0,0,1.01E+06,1.01E+06,0.0696259,0.0346425
420,-0.0479699,-2.5068,-3.7126,3.17245,1152.09,0.710151,15.3597,1147.02,429.599,0,0,0.00120473,0.0001817,-0.0314466,1.42599,-0.022867,1.4276,0,0,1.01E+06,1.01E+06,0.0704057,0.0347729
421,-0.0511478,-2.5068,-3.71423,3.17602,1156.41,-0.099645,15.6595,1151.12,427.319,0,0,0.00120473,0.0001817,-0.031577,1.42935,-0.0233689,1.43102,0,0,1.01E+06,1.01E+06,0.0711856,0.0349033
422,-0.0510529,-2.5068,-3.70833,3.18191,1150.3,-0.225178,16.5222,1146.22,435.926,0,0,0.00120473,0.0001817,-0.0316795,1.42696,-0.0250191,1.42861,0,0,1.01E+06,1.01E+06,0.0698947,0.034719
423,-0.0509581,-2.5068,-3.70244,3.18781,1150.08,-2.05807,15.4651,1148.99,447.089,0,0,0.00120473,0.0001817,-0.0300872,1.4267,-0.0251756,1.42837,0,0,1.01E+06,1.01E+06,0.0698657,0.0347125
424,-0.0508632,-2.5068,-3.69655,3.1937,1144.49,-2.27267,16.759,1143.92,452.505,0,0,0.00120473,0.0001817,-0.0303832,1.43354,-0.0272479,1.43521,0,0,1.01E+06,1.01E+06,0.0690354,0.0345438
425,-0.0507683,-2.5068,-3.69065,3.1996,1137.63,-2.10409,18.6096,1137,456.561,0,0,0.00120473,0.0001817,-0.0311264,1.44205,-0.0297739,1.44372,0,0,1.01E+06,1.01E+06,0.0680154,0.0343366
426,-0.0506735,-2.5068,-3.68476,3.20549,1130.77,-1.93552,20.4601,1130.07,460.617,0,0,0.00120473,0.0001817,-0.0318696,1.45056,-0.0322999,1.45224,0,0,1.01E+06,1.01E+06,0.0669954,0.0341294
427,-0.0505786,-2.5068,-3.67886,3.21139,1123.9,-1.76695,22.3107,1123.15,464.673,0,0,0.00120473,0.0001817,-0.0326128,1.45907,-0.0348259,1.46076,0,0,1.01E+06,1.01E+06,0.0659754,0.0339223
428,-0.0504838,-2.5068,-3.67297,3.21728,1117.04,-1.59838,24.1612,1116.23,468.729,0,0,0.00120473,0.0001817,-0.0333559,1.46758,-0.0373519,1.46928,0,0,1.01E+06,1.01E+06,0.0649554,0.0337151
429,-0.0503889,-2.5068,-3.66708,3.22317,1110.17,-1.4298,26.0118,1109.31,472.785,0,0,0.00120473,0.0001817,-0.0340991,1.4761,-0.0398779,1.4778,0,0,1.01E+06,1.01E+06,0.0639354,0.0335079
430,-0.050294,-2.5068,-3.66118,3.22907,1103.31,-1.26123,27.8624,1102.39,476.841,0,0,0.00120473,0.0001817,-0.0348423,1.48461,-0.0424039,1.48632,0,0,1.01E+06,1.01E+06,0.0629154,0.0333008
431,-0.0501992,-2.5068,-3.65529,3.23496,1096.45,-1.09266,29.7129,1095.46,480.897,0,0,0.00120473,0.0001817,-0.0355855,1.49312,-0.0449298,1.49484,0,0,1.01E+06,1.01E+06,0.0618955,0.0330936
432,-0.0501043,-2.5068,-3.6494,3.24086,1089.58,-0.924087,31.5635,1088.54,484.953,0,0,0.00120473,0.0001817,-0.0363286,1.50163,-0.0474559,1.50336,0,0,1.01E+06,1.01E+06,0.0608755,0.0328864
433,-0.0500094,-2.5068,-3.6435,3.24675,1082.72,-0.755518,33.414,1081.62,489.009,0,0,0.00120473,0.0001817,-0.0370718,1.51014,-0.0499818,1.51187,0,0,1.01E+06,1.01E+06,0.0598555,0.0326793
434,-0.0499146,-2.5068,-3.63761,3.25265,1075.86,-0.586942,35.2646,1074.7,493.065,0,0,0.00120473,0.0001817,-0.037815,1.51866,-0.0525079,1.52039,0,0,1.01E+06,1.01E+06,0.0588355,0.0324721
435,-0.0498197,-2.5068,-3.63172,3.25854,1068.15,-0.518862,36.8812,1066.93,497.052,0,0,0.00120473,0.0001817,-0.0382522,1.52251,-0.05416,1.5243,0,0,1.01E+06,1.01E+06,0.0580448,0.0322397
436,-0.0497248,-2.5068,-3.62582,3.26443,1060.27,-0.47251,38.4472,1058.98,501.023,0,0,0.00120473,0.0001817,-0.0386233,1.52537,-0.0556232,1.52722,0,0,1.01E+06,1.01E+06,0.0573036,0.0320017
437,-0.04963,-2.5068,-3.61993,3.27033,1052.39,-0.426158,40.0131,1051.04,504.995,0,0,0.00120473,0.0001817,-0.0389944,1.52822,-0.0570864,1.53013,0,0,1.01E+06,1.01E+06,0.0565625,0.0317638
438,-0.0495351,-2.5068,-3.61404,3.27622,1044.5,-0.379806,41.5792,1043.09,508.966,0,0,0.00120473,0.0001817,-0.0393655,1.53107,-0.0585496,1.53304,0,0,1.01E+06,1.01E+06,0.0558214,0.0315258
439,-0.0494402,-2.5068,-3.60814,3.28212,1036.62,-0.333455,43.1451,1035.14,512.938,0,0,0.00120473,0.0001817,-0.0397366,1.53393,-0.0600128,1.53596,0,0,1.01E+06,1.01E+06,0.0550803,0.0312879
440,-0.0493454,-2.5068,-3.60225,3.28801,1028.74,-0.287102,44.7111,1027.2,516.909,0,0,0.00120473,0.0001817,-0.0401077,1.53678,-0.061476,1.53887,0,0,1.01E+06,1.01E+06,0.0543392,0.03105
441,-0.0492505,-2.5068,-3.59635,3.29391,1023.29,-0.195967,47.1882,1021.66,518.653,0,0,0.00120473,0.0001817,-0.0405691,1.5449,-0.0623694,1.54701,0,0,1.01E+06,1.01E+06,0.0536334,0.0308856
442,-0.0515648,-2.5068,-3.59134,3.29943,1019.12,-0.689386,49.3199,1017.42,521.318,0,0,0.00120473,0.0001817,-0.0411686,1.55174,-0.0644212,1.55391,0,0,1.01E+06,1.01E+06,0.0532448,0.0307597
443,-0.053879,-2.5068,-3.58632,3.30496,1014.95,-1.1828,51.4518,1013.17,523.983,0,0,0.00120473,0.0001817,-0.0417682,1.55857,-0.0664729,1.56082,0,0,1.01E+06,1.01E+06,0.0528562,0.0306337
444,-0.0561933,-2.5068,-3.5813,3.31048,1010.77,-1.67622,53.5836,1008.92,526.648,0,0,0.00120473,0.0001817,-0.0423677,1.5654,-0.0685247,1.56772,0,0,1.01E+06,1.01E+06,0.0524676,0.0305078
445,-0.0585075,-2.5068,-3.57628,3.31601,1006.6,-2.16964,55.7154,1004.67,529.313,0,0,0.00120473,0.0001817,-0.0429672,1.57223,-0.0705765,1.57462,0,0,1.01E+06,1.01E+06,0.052079,0.0303818
446,-0.0608218,-2.5068,-3.57127,3.32153,1002.43,-2.66306,57.8472,1000.42,531.978,0,0,0.00120473,0.0001817,-0.0435668,1.57906,-0.0726282,1.58153,0,0,1.01E+06,1.01E+06,0.0516904,0.0302559
447,-0.0631361,-2.5068,-3.56625,3.32706,998.254,-3.15648,59.979,996.17,534.643,0,0,0.00120473,0.0001817,-0.0441663,1.5859,-0.07468,1.58843,0,0,1.01E+06,1.01E+06,0.0513018,0.0301299
448,-0.0654503,-2.5068,-3.56123,3.33259,994.081,-3.6499,62.1108,991.921,537.308,0,0,0.00120473,0.0001817,-0.0447658,1.59273,-0.0767318,1.59534,0,0,1.01E+06,1.01E+06,0.0509132,0.030004
449,-0.0677646,-2.5068,-3.55621,3.33811,989.908,-4.14331,64.2425,987.672,539.973,0,0,0.00120473,0.0001817,-0.0453653,1.59956,-0.0787835,1.60224,0,0,1.01E+06,1.01E+06,0.0505246,0.029878
450,-0.0700788,-2.5068,-3.5512,3.34364,985.735,-4.63673,66.3744,983.423,542.638,0,0,0.00120473,0.0001817,-0.0459649,1.60639,-0.0808353,1.60914,0,0,1.01E+06,1.01E+06,0.050136,0.029752
451,-0.0723931,-2.5068,-3.54618,3.34916,991.292,-5.68569,69.1175,988.825,544.142,0,0,0.00120473,0.0001817,-0.0438827,1.60339,-0.0828829,1.60635,0,0,1.01E+06,1.01E+06,0.0508627,0.0299198
452,-0.0747074,-2.5068,-3.54116,3.35469,995.079,-6.03547,71.2532,992.47,547.779,0,0,0.00120473,0.0001817,-0.0433573,1.59322,-0.0828564,1.59623,0,0,1.01E+06,1.01E+06,0.0518025,0.0300341
453,-0.0770216,-2.5068,-3.53614,3.36021,997.535,-6.60466,72.5017,994.829,553.567,0,0,0.00120473,0.0001817,-0.0418777,1.58001,-0.0823283,1.58308,0,0,1.01E+06,1.01E+06,0.0527305,0.0301082
454,-0.0793359,-2.5068,-3.53113,3.36574,994.587,-8.065,70.1463,991.97,568.09,0,0,0.00120473,0.0001817,-0.0365235,1.55439,-0.0797637,1.55767,0,0,1.01E+06,1.01E+06,0.0536107,0.0300192
455,-0.0816501,-2.5068,-3.52611,3.37126,991.64,-9.52534,67.7909,989.111,582.613,0,0,0.00120473,0.0001817,-0.0311693,1.52877,-0.0771992,1.53227,0,0,1.01E+06,1.01E+06,0.0544909,0.0299303
456,-0.0839644,-2.5068,-3.52109,3.37679,988.692,-10.9857,65.4355,986.252,597.136,0,0,0.00120473,0.0001817,-0.025815,1.50315,-0.0746346,1.50686,0,0,1.01E+06,1.01E+06,0.0553712,0.0298413
457,-0.0862786,-2.5068,-3.51607,3.38232,987.299,-12.3097,63.0731,984.841,609.55,0,0,0.00120473,0.0001817,-0.0199534,1.47189,-0.0711982,1.47582,0,0,1.01E+06,1.01E+06,0.0567015,0.0297993
458,-0.0885929,-2.5068,-3.51106,3.38784,987.383,-13.5045,60.7042,984.803,619.962,0,0,0.00120473,0.0001817,-0.0136107,1.43528,-0.066935,1.43944,0,0,1.01E+06,1.01E+06,0.0584587,0.0298018
459,-0.0909072,-2.5068,-3.50604,3.39337,987.466,-14.6992,58.3353,984.765,630.373,0,0,0.00120473,0.0001817,-0.00726795,1.39868,-0.0626718,1.40306,0,0,1.01E+06,1.01E+06,0.0602159,0.0298043
460,-0.0932214,-2.5068,-3.50102,3.39889,987.549,-15.8939,55.9664,984.727,640.785,0,0,0.00120473,0.0001817,-0.000925026,1.36207,-0.0584084,1.36668,0,0,1.01E+06,1.01E+06,0.0619732,0.0298068
461,-0.0955357,-2.5068,-3.496,3.40442,987.632,-17.0887,53.5975,984.69,651.196,0,0,0.00120473,0.0001817,0.00541769,1.32547,-0.0541452,1.3303,0,0,1.01E+06,1.01E+06,0.0637304,0.0298093
462,-0.0914,-2.5068,-3.52288,3.43161,998.31,-13.3676,64.3844,995.438,590.74,0,0,0.00120473,0.0001817,-0.0213132,1.47928,-0.0783349,1.48355,0,0,1.01E+06,1.01E+06,0.0578777,0.0301316
463,-0.0872644,-2.5068,-3.54975,3.4588,1006.89,-9.90315,68.665,1004.39,548.306,0,0,0.00120473,0.0001817,-0.0422303,1.59251,-0.0906602,1.596,0,0,1.01E+06,1.01E+06,0.0535237,0.0303905
464,-0.0831288,-2.5068,-3.57662,3.48599,1021.26,-7.86736,59.3949,1019.23,532.575,0,0,0.00120473,0.0001817,-0.0454208,1.59165,-0.081553,1.59448,0,0,1.01E+06,1.01E+06,0.0544401,0.0308244
465,-0.0789931,-2.5068,-3.6035,3.51318,1053.63,-7.03914,51.2025,1051.92,514.68,0,0,0.00120473,0.0001817,-0.0432345,1.57297,-0.0730491,1.57546,0,0,1.01E+06,1.01E+06,0.0573755,0.0318012
466,-0.0748575,-2.5068,-3.63037,3.54036,1085.55,-6.26432,42.8858,1084.15,496.748,0,0,0.00120473,0.0001817,-0.0408857,1.55181,-0.064081,1.55399,0,0,1.01E+06,1.01E+06,0.0604326,0.0327646
467,-0.0707219,-2.5068,-3.65724,3.56755,1113.54,-5.96025,33.473,1112.44,478.491,0,0,0.00120473,0.0001817,-0.0371037,1.50886,-0.0510192,1.51093,0,0,1.01E+06,1.01E+06,0.0645638,0.0336095
468,-0.0665862,-2.5068,-3.68411,3.59474,1141.53,-5.65618,24.0602,1140.73,460.234,0,0,0.00120473,0.0001817,-0.0333217,1.46591,-0.0379575,1.46787,0,0,1.01E+06,1.01E+06,0.0686951,0.0344544
469,-0.0624506,-2.5068,-3.71099,3.62193,1159.23,-2.25157,19.1517,1154.01,430.968,0,0,0.00120473,0.0001817,-0.0331578,1.43654,-0.0285666,1.43839,0,0,1.01E+06,1.01E+06,0.0712911,0.0349884
470,-0.058315,-2.5068,-3.73786,3.64912,1194.28,-3.65009,10.8453,1186.7,396.362,0,0,0.00120473,0.0001817,-0.029289,1.44753,-0.0168583,1.44945,0,0,1.01E+06,1.01E+06,0.0789258,0.0360463
471,-0.0541793,-2.5068,-3.76473,3.67631,1229.5,-5.10041,2.48053,1219.62,361.834,0,0,0.00120473,0.0001817,-0.0253688,1.45857,-0.0051047,1.46057,0,0,1.01E+06,1.01E+06,0.0865987,0.0371096
472,-0.0500437,-2.5068,-3.79161,3.7035,1264.73,-6.55071,-5.88413,1252.55,327.307,0,0,0.00120473,0.0001817,-0.0214485,1.46962,0.0066488,1.4717,0,0,1.01E+06,1.01E+06,0.0942715,0.0381729
473,-0.0459081,-2.5068,-3.81848,3.73069,1299.96,-8.00103,-14.2489,1285.47,292.779,0,0,0.00120473,0.0001817,-0.0175283,1.48067,0.0184024,1.48283,0,0,1.01E+06,1.01E+06,0.101944,0.0392361
474,-0.0417724,-2.5068,-3.84535,3.75788,1335.19,-9.45133,-22.6135,1318.39,258.251,0,0,0.00120473,0.0001817,-0.0136081,1.49171,0.0301559,1.49395,0,0,1.01E+06,1.01E+06,0.109617,0.0402994
475,-0.0376368,-2.5068,-3.87223,3.78507,1307.93,-11.701,-19.5108,1306.95,207.109,0,0,0.00120473,0.0001817,-0.0244685,1.56747,0.0113154,1.56818,0,0,1.01E+06,1.01E+06,0.101591,0.0394767
476,-0.0335011,-2.5068,-3.8991,3.81226,1244.81,-15.2503,-25.0744,1243.88,171.241,0,0,0.00120473,0.0001817,-0.0231671,1.61351,0.0100213,1.61397,0,0,1.01E+06,1.01E+06,0.0979243,0.0375717
477,-0.0293655,-2.5068,-3.92597,3.83945,1199.46,-18.7594,-29.7389,1198.41,135.443,0,0,0.00120473,0.0001817,-0.0192837,1.59607,0.00974729,1.59634,0,0,1.01E+06,1.01E+06,0.0983132,0.0362027
478,-0.0252299,-2.5068,-3.95284,3.86664,1193.88,-18.2449,-30.437,1192.59,101.168,0,0,0.00120473,0.0001817,-0.015616,1.48891,0.0126606,1.48924,0,0,1.01E+06,1.01E+06,0.104056,0.0360343
479,-0.0210942,-2.5068,-3.97972,3.89383,1184.07,-19.845,-31.1691,1182.16,65.7819,0,0,0.00120473,0.0001817,-0.00937112,1.39564,0.0109474,1.39616,0,0,1.01E+06,1.01E+06,0.10925,0.0357382
480,-0.0169586,-2.5068,-4.00659,3.92102,1174.26,-21.445,-31.9012,1171.72,30.3959,0,0,0.00120473,0.0001817,-0.00312624,1.30236,0.00923411,1.30309,0,0,1.01E+06,1.01E+06,0.114443,0.0354421
481,-0.012823,-2.5068,-4.03346,3.94821,1164.45,-23.045,-32.6332,1161.28,-4.99038,0,0,0.00120473,0.0001817,0.00311866,1.20909,0.00752088,1.21002,0,0,1.01E+06,1.01E+06,0.119637,0.035146
482,-0.0132321,-2.5068,-4.02601,3.95567,1166.89,-22.8659,-32.3383,1163.83,4.83313,0,0,0.00120473,0.0001817,0.00209452,1.23584,0.00739685,1.23673,0,0,1.01E+06,1.01E+06,0.118158,0.0352198
483,-0.0136413,-2.5068,-4.01856,3.96313,1169.34,-22.6867,-32.0435,1166.37,14.656,0,0,0.00120473,0.0001817,0.00107042,1.26258,0.00727285,1.26344,0,0,1.01E+06,1.01E+06,0.116679,0.0352936
484,-0.0140504,-2.5068,-4.01111,3.97059,1171.78,-22.5076,-31.7486,1168.92,24.4795,0,0,0.00120473,0.0001817,4.63E-05,1.28933,0.00714882,1.29016,0,0,1.01E+06,1.01E+06,0.115201,0.0353674
485,-0.0144596,-2.5068,-4.00366,3.97805,1174.22,-22.3284,-31.4537,1171.47,34.3024,0,0,0.00120473,0.0001817,-0.000977825,1.31607,0.00702482,1.31687,0,0,1.01E+06,1.01E+06,0.113722,0.0354412
486,-0.0148687,-2.5068,-3.99621,3.98551,1176.67,-22.1493,-31.1588,1174.02,44.1256,0,0,0.00120473,0.0001817,-0.00200194,1.34282,0.00690081,1.34358,0,0,1.01E+06,1.01E+06,0.112243,0.0355149
487,-0.0152779,-2.5068,-3.98876,3.99297,1179.11,-21.9701,-30.8639,1176.56,53.9488,0,0,0.00120473,0.0001817,-0.00302607,1.36956,0.00677679,1.37029,0,0,1.01E+06,1.01E+06,0.110764,0.0355887
488,-0.015687,-2.5068,-3.98131,4.00043,1181.56,-21.791,-30.5691,1179.11,63.772,0,0,0.00120473,0.0001817,-0.00405018,1.39631,0.00665278,1.397,0,0,1.01E+06,1.01E+06,0.109285,0.0356625
489,-0.0160962,-2.5068,-3.97386,4.00789,1184,-21.6118,-30.2742,1181.66,73.5952,0,0,0.00120473,0.0001817,-0.00507431,1.42306,0.00652876,1.42371,0,0,1.01E+06,1.01E+06,0.107806,0.0357363
490,-0.0165053,-2.5068,-3.96641,4.01536,1186.45,-21.4327,-29.9793,1184.2,83.4184,0,0,0.00120473,0.0001817,-0.00609843,1.4498,0.00640475,1.45043,0,0,1.01E+06,1.01E+06,0.106327,0.0358101
491,-0.0169145,-2.5068,-3.95896,4.02282,1188.89,-21.2535,-29.6844,1186.75,93.2416,0,0,0.00120473,0.0001817,-0.00712255,1.47655,0.00628073,1.47714,0,0,1.01E+06,1.01E+06,0.104848,0.0358839
492,-0.0173236,-2.5068,-3.95151,4.03028,1191.34,-21.0744,-29.3895,1189.3,103.065,0,0,0.00120473,0.0001817,-0.00814669,1.5033,0.00615671,1.50385,0,0,1.01E+06,1.01E+06,0.103369,0.0359577
493,-0.0177328,-2.5068,-3.94406,4.03774,1193.78,-20.8952,-29.0946,1191.85,112.888,0,0,0.00120473,0.0001817,-0.00917081,1.53004,0.00603269,1.53056,0,0,1.01E+06,1.01E+06,0.10189,0.0360314
494,-0.018142,-2.5068,-3.93662,4.0452,1196.23,-20.7161,-28.7998,1194.39,122.712,0,0,0.00120473,0.0001817,-0.0101949,1.55679,0.00590868,1.55728,0,0,1.01E+06,1.01E+06,0.100411,0.0361052
495,-0.0185511,-2.5068,-3.92917,4.05266,1198.67,-20.5369,-28.5049,1196.94,132.535,0,0,0.00120473,0.0001817,-0.011219,1.58353,0.00578466,1.58399,0,0,1.01E+06,1.01E+06,0.0989326,0.036179
496,-0.0189603,-2.5068,-3.92172,4.06012,1201.12,-20.3578,-28.21,1199.49,142.358,0,0,0.00120473,0.0001817,-0.0122432,1.61028,0.00566065,1.6107,0,0,1.01E+06,1.01E+06,0.0974537,0.0362528
497,-0.0193694,-2.5068,-3.91427,4.06758,1216.95,-19.9346,-27.3651,1211.58,152.589,0,0,0.00120473,0.0001817,-0.014081,1.60952,0.00507934,1.60997,0,0,1.01E+06,1.01E+06,0.0979909,0.0367307
498,-0.0197786,-2.5068,-3.90682,4.07504,1241.73,-18.9183,-25.9193,1232.6,163.096,0,0,0.00120473,0.0001817,-0.0154949,1.58146,0.005574,1.58196,0,0,1.01E+06,1.01E+06,0.100203,0.0374788
499,-0.0201877,-2.5068,-3.89937,4.08251,1257.47,-17.4768,-24.5253,1250.67,173.33,0,0,0.00120473,0.0001817,-0.0150298,1.55975,0.00827452,1.56023,0,0,1.01E+06,1.01E+06,0.101502,0.0379539
500,-0.0205969,-2.5068,-3.89192,4.08997,1273.21,-16.0354,-23.1312,1268.74,183.565,0,0,0.00120473,0.0001817,-0.0145648,1.53804,0.010975,1.5385,0,0,1.01E+06,1.01E+06,0.102801,0.0384289
501,-0.021006,-2.5068,-3.88447,4.09743,1288.95,-14.594,-21.7372,1286.81,193.8,0,0,0.00120473,0.0001817,-0.0140998,1.51633,0.0136756,1.51677,0,0,1.01E+06,1.01E+06,0.104099,0.038904
502,-0.0130892,-2.5068,-3.88849,4.10631,1298.58,-19.0627,-21.3799,1280.61,189.041,0,0,0.00120473,0.0001817,-0.0112045,1.5214,0.00102701,1.52225,0,0,1.01E+06,1.01E+06,0.105154,0.0391945
503,-0.00517242,-2.5068,-3.89251,4.11519,1304.55,-23.3595,-21.0436,1273.22,184.172,0,0,0.00120473,0.0001817,-0.00754997,1.52904,-0.0107302,1.53026,0,0,1.01E+06,1.01E+06,0.105839,0.0393747
504,0.00274439,-2.5068,-3.89654,4.12407,1285.6,-26.4852,-20.8498,1257.7,178.554,0,0,0.00120473,0.0001817,0.00128083,1.55419,-0.0164105,1.55559,0,0,1.01E+06,1.01E+06,0.104007,0.0388027
505,0.0106612,-2.5068,-3.90056,4.13295,1266.64,-29.6109,-20.6561,1242.19,172.936,0,0,0.00120473,0.0001817,0.0101116,1.57933,-0.0220907,1.58092,0,0,1.01E+06,1.01E+06,0.102175,0.0382306
506,0.018578,-2.5068,-3.90459,4.14183,1242.33,-30.3818,-21.4855,1223.16,166.21,0,0,0.00120473,0.0001817,0.0171387,1.61159,-0.0246351,1.61323,0,0,1.01E+06,1.01E+06,0.0995023,0.0374967
507,0.0264948,-2.5068,-3.90861,4.15071,1214.88,-29.7746,-22.9135,1202.08,158.834,0,0,0.00120473,0.0001817,0.0231101,1.64801,-0.0253444,1.64962,0,0,1.01E+06,1.01E+06,0.0963374,0.0366681
508,0.0344116,-2.5068,-3.91264,4.15959,1187.42,-29.1675,-24.3416,1181,151.459,0,0,0.00120473,0.0001817,0.0290816,1.68443,-0.0260538,1.68602,0,0,1.01E+06,1.01E+06,0.0931723,0.0358395
509,0.0423284,-2.5068,-3.91666,4.16848,1177.26,-28.1332,-25.5018,1172.05,144.604,0,0,0.00120473,0.0001817,0.0332314,1.69347,-0.0261467,1.69512,0,0,1.01E+06,1.01E+06,0.0926995,0.0355329
510,0.0502452,-2.5068,-3.92069,4.17736,1171.67,-26.9863,-26.5914,1166.3,137.886,0,0,0.00120473,0.0001817,0.0369012,1.69529,-0.0260771,1.69703,0,0,1.01E+06,1.01E+06,0.0929364,0.0353639
511,0.058162,-2.5068,-3.92471,4.18624,1166.07,-25.8394,-27.681,1160.56,131.169,0,0,0.00120473,0.0001817,0.0405709,1.69711,-0.0260076,1.69894,0,0,1.01E+06,1.01E+06,0.0931733,0.035195
512,0.0660788,-2.5068,-3.92873,4.19512,1160.47,-24.6925,-28.7706,1154.81,124.451,0,0,0.00120473,0.0001817,0.0442406,1.69893,-0.025938,1.70086,0,0,1.01E+06,1.01E+06,0.0934102,0.035026
513,0.0739956,-2.5068,-3.93276,4.204,1154.87,-23.5456,-29.8601,1149.06,117.734,0,0,0.00120473,0.0001817,0.0479103,1.70075,-0.0258685,1.70277,0,0,1.01E+06,1.01E+06,0.093647,0.0348571
514,0.0819124,-2.5068,-3.93678,4.21288,1149.28,-22.3987,-30.9497,1143.31,111.016,0,0,0.00120473,0.0001817,0.0515801,1.70257,-0.0257989,1.70468,0,0,1.01E+06,1.01E+06,0.0938839,0.0346881
515,0.0898292,-2.5068,-3.94081,4.22176,1143.68,-21.2518,-32.0393,1137.56,104.299,0,0,0.00120473,0.0001817,0.0552498,1.70439,-0.0257294,1.70659,0,0,1.01E+06,1.01E+06,0.0941208,0.0345192
516,0.097746,-2.5068,-3.94483,4.23064,1138.08,-20.1048,-33.1289,1131.81,97.5812,0,0,0.00120473,0.0001817,0.0589195,1.70622,-0.0256598,1.7085,0,0,1.01E+06,1.01E+06,0.0943576,0.0343502
517,0.105663,-2.5068,-3.94886,4.23952,1132.48,-18.958,-34.2185,1126.06,90.8636,0,0,0.00120473,0.0001817,0.0625892,1.70804,-0.0255903,1.71041,0,0,1.01E+06,1.01E+06,0.0945945,0.0341813
518,0.11358,-2.5068,-3.95288,4.2484,1126.89,-17.8111,-35.308,1120.32,84.146,0,0,0.00120473,0.0001817,0.066259,1.70986,-0.0255207,1.71232,0,0,1.01E+06,1.01E+06,0.0948314,0.0340123
519,0.121496,-2.5068,-3.95691,4.25729,1120.96,-16.9936,-36.0108,1113.92,77.5344,0,0,0.00120473,0.0001817,0.0700515,1.70813,-0.026008,1.71078,0,0,1.01E+06,1.01E+06,0.0952315,0.0338336
520,0.129413,-2.5068,-3.96093,4.26617,1112.08,-19.1768,-33.1905,1101.66,71.8888,0,0,0.00120473,0.0001817,0.0749626,1.67407,-0.0315672,1.67776,0,0,1.01E+06,1.01E+06,0.097117,0.0335655
521,0.13733,-2.5068,-3.96495,4.27505,1103.2,-21.36,-30.3703,1089.4,66.2429,0,0,0.00120473,0.0001817,0.0798738,1.64001,-0.0371265,1.64473,0,0,1.01E+06,1.01E+06,0.0990025,0.0332974
522,0.132188,-2.5068,-3.96105,4.2815,1109.58,-19.6552,-32.182,1098.09,71.5068,0,0,0.00120473,0.0001817,0.0765262,1.66484,-0.0335017,1.66886,0,0,1.01E+06,1.01E+06,0.0974813,0.03349
523,0.127045,-2.5068,-3.95714,4.28796,1115.96,-17.9504,-33.9936,1106.78,76.771,0,0,0.00120473,0.0001817,0.0731785,1.68968,-0.029877,1.69298,0,0,1.01E+06,1.01E+06,0.0959601,0.0336826
524,0.121903,-2.5068,-3.95324,4.29442,1122.34,-16.2456,-35.8053,1115.47,82.0348,0,0,0.00120473,0.0001817,0.0698308,1.71451,-0.0262523,1.71711,0,0,1.01E+06,1.01E+06,0.0944389,0.0338752
525,0.11676,-2.5068,-3.94933,4.30088,1126.82,-16.4723,-35.3492,1120.38,87.9203,0,0,0.00120473,0.0001817,0.0672032,1.71853,-0.0258924,1.72097,0,0,1.01E+06,1.01E+06,0.093874,0.0340103
526,0.111618,-2.5068,-3.94543,4.30734,1131,-16.9979,-34.5423,1124.71,93.902,0,0,0.00120473,0.0001817,0.064687,1.71933,-0.0260374,1.7217,0,0,1.01E+06,1.01E+06,0.093457,0.0341365
527,0.106475,-2.5068,-3.94152,4.31379,1135.18,-17.5234,-33.7354,1129.03,99.8836,0,0,0.00120473,0.0001817,0.0621708,1.72013,-0.0261825,1.72243,0,0,1.01E+06,1.01E+06,0.09304,0.0342628
528,0.101333,-2.5068,-3.93761,4.32025,1139.36,-18.0488,-32.9285,1133.36,105.866,0,0,0.00120473,0.0001817,0.0596546,1.72093,-0.0263276,1.72315,0,0,1.01E+06,1.01E+06,0.0926229,0.034389
529,0.0961902,-2.5068,-3.93371,4.32671,1143.55,-18.5744,-32.1216,1137.69,111.847,0,0,0.00120473,0.0001817,0.0571383,1.72173,-0.0264727,1.72388,0,0,1.01E+06,1.01E+06,0.0922059,0.0345152
530,0.0910477,-2.5068,-3.9298,4.33317,1147.73,-19.0999,-31.3147,1142.02,117.829,0,0,0.00120473,0.0001817,0.0546221,1.72254,-0.0266177,1.72461,0,0,1.01E+06,1.01E+06,0.0917889,0.0346414
531,0.0859052,-2.5068,-3.9259,4.33962,1151.91,-19.6253,-30.5078,1146.34,123.811,0,0,0.00120473,0.0001817,0.0521059,1.72334,-0.0267628,1.72534,0,0,1.01E+06,1.01E+06,0.0913718,0.0347676
532,0.0807627,-2.5068,-3.92199,4.34608,1156.09,-20.1508,-29.7009,1150.67,129.793,0,0,0.00120473,0.0001817,0.0495897,1.72414,-0.0269079,1.72607,0,0,1.01E+06,1.01E+06,0.0909548,0.0348938
533,0.0756203,-2.5068,-3.91808,4.35254,1160.27,-20.6764,-28.8941,1155,135.774,0,0,0.00120473,0.0001817,0.0470734,1.72494,-0.027053,1.7268,0,0,1.01E+06,1.01E+06,0.0905378,0.03502
534,0.0704778,-2.5068,-3.91418,4.359,1164.45,-21.2019,-28.0872,1159.33,141.756,0,0,0.00120473,0.0001817,0.0445572,1.72574,-0.0271981,1.72753,0,0,1.01E+06,1.01E+06,0.0901208,0.0351463
535,0.0653353,-2.5068,-3.91027,4.36545,1168.64,-21.7274,-27.2803,1163.65,147.738,0,0,0.00120473,0.0001817,0.042041,1.72654,-0.0273431,1.72826,0,0,1.01E+06,1.01E+06,0.0897038,0.0352725
536,0.0601928,-2.5068,-3.90637,4.37191,1172.82,-22.2529,-26.4734,1167.98,153.719,0,0,0.00120473,0.0001817,0.0395248,1.72735,-0.0274882,1.72899,0,0,1.01E+06,1.01E+06,0.0892867,0.0353987
537,0.0550503,-2.5068,-3.90246,4.37837,1194.23,-22.3529,-25.3996,1184.4,160.22,0,0,0.00120473,0.0001817,0.0351941,1.70087,-0.0270193,1.70253,0,0,1.01E+06,1.01E+06,0.0915514,0.0360449
538,0.0499078,-2.5068,-3.89856,4.38483,1216.96,-22.4203,-24.3054,1201.74,166.76,0,0,0.00120473,0.0001817,0.0307243,1.67231,-0.0265033,1.67399,0,0,1.01E+06,1.01E+06,0.0940217,0.036731
539,0.0447654,-2.5068,-3.89465,4.39128,1239.69,-22.4876,-23.2112,1219.08,173.301,0,0,0.00120473,0.0001817,0.0262545,1.64375,-0.0259873,1.64545,0,0,1.01E+06,1.01E+06,0.096492,0.0374171
540,0.0396229,-2.5068,-3.89074,4.39774,1262.42,-22.555,-22.117,1236.42,179.841,0,0,0.00120473,0.0001817,0.0217847,1.61519,-0.0254714,1.61691,0,0,1.01E+06,1.01E+06,0.0989623,0.0381032
541,0.0344804,-2.5068,-3.88684,4.4042,1285.15,-22.6224,-21.0228,1253.76,186.381,0,0,0.00120473,0.0001817,0.017315,1.58663,-0.0249554,1.58837,0,0,1.01E+06,1.01E+06,0.101433,0.0387893
542,0.0458062,-2.5068,-3.88582,4.41557,1271.56,-20.0396,-22.1927,1242.72,185,0,0,0.00120473,0.0001817,0.0227598,1.61301,-0.0256806,1.61476,0,0,1.01E+06,1.01E+06,0.0990771,0.038379
543,0.0571321,-2.5068,-3.88481,4.42694,1257.97,-17.4568,-23.3625,1231.68,183.619,0,0,0.00120473,0.0001817,0.0282048,1.63939,-0.0264058,1.64115,0,0,1.01E+06,1.01E+06,0.0967216,0.0379687
544,0.0684579,-2.5068,-3.88379,4.43831,1244.37,-14.8739,-24.5324,1220.64,182.239,0,0,0.00120473,0.0001817,0.0336496,1.66577,-0.0271311,1.66754,0,0,1.01E+06,1.01E+06,0.0943661,0.0375584
545,0.0797837,-2.5068,-3.88278,4.44968,1230.78,-12.291,-25.7022,1209.6,180.858,0,0,0.00120473,0.0001817,0.0390945,1.69215,-0.0278563,1.69393,0,0,1.01E+06,1.01E+06,0.0920107,0.0371481
546,0.0911096,-2.5068,-3.88177,4.46106,1217.18,-9.70824,-26.8721,1198.56,179.477,0,0,0.00120473,0.0001817,0.0445394,1.71853,-0.0285815,1.72032,0,0,1.01E+06,1.01E+06,0.0896552,0.0367378
547,0.102435,-2.5068,-3.88075,4.47243,1203.59,-7.12537,-28.0419,1187.53,178.096,0,0,0.00120473,0.0001817,0.0499843,1.74491,-0.0293068,1.74671,0,0,1.01E+06,1.01E+06,0.0872997,0.0363275
548,0.113761,-2.5068,-3.87974,4.4838,1190,-4.54251,-29.2117,1176.49,176.716,0,0,0.00120473,0.0001817,0.0554291,1.77129,-0.030032,1.7731,0,0,1.01E+06,1.01E+06,0.0849443,0.0359172
549,0.125087,-2.5068,-3.87872,4.49517,1176.4,-1.9597,-30.3816,1165.45,175.335,0,0,0.00120473,0.0001817,0.060874,1.79767,-0.0307572,1.79949,0,0,1.01E+06,1.01E+06,0.0825887,0.0355068
550,0.136413,-2.5068,-3.87771,4.50654,1155.42,-1.5942,-29.185,1146.59,174.465,0,0,0.00120473,0.0001817,0.0676574,1.81001,-0.0351979,1.8124,0,0,1.01E+06,1.01E+06,0.0804369,0.0348737
551,0.147739,-2.5068,-3.87669,4.51791,1135.84,-3.46837,-25.1946,1125.77,174.457,0,0,0.00120473,0.0001817,0.0749209,1.79139,-0.0434467,1.79504,0,0,1.01E+06,1.01E+06,0.0800137,0.0342825
552,0.159065,-2.5068,-3.87568,4.52928,1126.34,-5.08875,-21.0537,1112.03,174.75,0,0,0.00120473,0.0001817,0.0811209,1.75686,-0.0513282,1.76182,0,0,1.01E+06,1.01E+06,0.0811572,0.0339958
553,0.17039,-2.5068,-3.87467,4.54065,1121.89,-5.48889,-18.4275,1106.01,172,0,0,0.00120473,0.0001817,0.082937,1.71631,-0.0432291,1.72281,0,0,1.01E+06,1.01E+06,0.0839436,0.0338615
554,0.181716,-2.5068,-3.87365,4.55202,1115.11,-5.04986,-17.5057,1097.83,169.671,0,0,0.00120473,0.0001817,0.0810924,1.68257,-0.0388481,1.69009,0,0,1.01E+06,1.01E+06,0.0873129,0.033657
555,0.193042,-2.5068,-3.87264,4.5634,1108.34,-4.61075,-16.584,1089.66,167.343,0,0,0.00120473,0.0001817,0.0792476,1.64883,-0.0344671,1.65737,0,0,1.01E+06,1.01E+06,0.0906821,0.0334525
556,0.204368,-2.5068,-3.87162,4.57477,1101.56,-4.17164,-15.6623,1081.48,165.014,0,0,0.00120473,0.0001817,0.0774028,1.61509,-0.0300862,1.62466,0,0,1.01E+06,1.01E+06,0.0940513,0.0332481
557,0.215694,-2.5068,-3.87061,4.58614,1094.79,-3.73261,-14.7406,1073.3,162.685,0,0,0.00120473,0.0001817,0.0755582,1.58135,-0.0257052,1.59194,0,0,1.01E+06,1.01E+06,0.0974206,0.0330436
558,0.22702,-2.5068,-3.86959,4.59751,1088.02,-3.2935,-13.8189,1065.12,160.356,0,0,0.00120473,0.0001817,0.0737134,1.54761,-0.0213243,1.55922,0,0,1.01E+06,1.01E+06,0.10079,0.0328392
559,0.238345,-2.5068,-3.86858,4.60888,1081.24,-2.85438,-12.8972,1056.95,158.027,0,0,0.00120473,0.0001817,0.0718687,1.51387,-0.0169434,1.52651,0,0,1.01E+06,1.01E+06,0.104159,0.0326347
560,0.249671,-2.5068,-3.86756,4.62025,1074.47,-2.41535,-11.9755,1048.77,155.698,0,0,0.00120473,0.0001817,0.070024,1.48013,-0.0125624,1.49379,0,0,1.01E+06,1.01E+06,0.107528,0.0324302
561,0.260997,-2.5068,-3.86655,4.63162,1067.69,-1.97624,-11.0538,1040.59,153.369,0,0,0.00120473,0.0001817,0.0681792,1.4464,-0.00818144,1.46107,0,0,1.01E+06,1.01E+06,0.110898,0.0322258
562,0.257993,-2.5068,-3.85488,4.64367,1072.16,1.48197,-13.0236,1046.73,168.334,0,0,0.00120473,0.0001817,0.0622025,1.48686,-0.0121425,1.50042,0,0,1.01E+06,1.01E+06,0.108319,0.0323606
563,0.25499,-2.5068,-3.84321,4.65572,1077.62,3.21719,-11.8672,1053.28,179.864,0,0,0.00120473,0.0001817,0.0596371,1.51319,-0.0090978,1.52661,0,0,1.01E+06,1.01E+06,0.105986,0.0325253
564,0.251986,-2.5068,-3.83154,4.66777,1083.07,4.95243,-10.7108,1059.83,191.394,0,0,0.00120473,0.0001817,0.0570717,1.53951,-0.00605302,1.55279,0,0,1.01E+06,1.01E+06,0.103653,0.03269
565,0.248982,-2.5068,-3.81987,4.67982,1088.53,6.68768,-9.55439,1066.38,202.925,0,0,0.00120473,0.0001817,0.0545063,1.56583,-0.00300825,1.57898,0,0,1.01E+06,1.01E+06,0.10132,0.0328547
566,0.245979,-2.5068,-3.8082,4.69187,1093.99,8.4229,-8.39802,1072.93,214.455,0,0,0.00120473,0.0001817,0.0519409,1.59215,3.64E-05,1.60516,0,0,1.01E+06,1.01E+06,0.0989864,0.0330194
567,0.242975,-2.5068,-3.79653,4.70392,1096.15,10.5062,-7.2545,1076.19,227.349,0,0,0.00120473,0.0001817,0.0483112,1.60713,0.00543864,1.61981,0,0,1.01E+06,1.01E+06,0.0966973,0.0330846
568,0.239971,-2.5068,-3.78486,4.71597,1094.92,12.9463,-6.12418,1076.07,241.641,0,0,0.00120473,0.0001817,0.0435905,1.61047,0.0132575,1.62265,0,0,1.01E+06,1.01E+06,0.0944533,0.0330476
569,0.236968,-2.5068,-3.77319,4.72802,1093.7,15.3864,-4.9939,1075.94,255.933,0,0,0.00120473,0.0001817,0.03887,1.6138,0.0210761,1.62548,0,0,1.01E+06,1.01E+06,0.0922094,0.0330107
570,0.233964,-2.5068,-3.76152,4.74007,1092.47,17.8265,-3.86358,1075.82,270.225,0,0,0.00120473,0.0001817,0.0341493,1.61714,0.0288949,1.62831,0,0,1.01E+06,1.01E+06,0.0899654,0.0329737
571,0.230961,-2.5068,-3.74985,4.75212,1091.25,20.2666,-2.73327,1075.7,284.517,0,0,0.00120473,0.0001817,0.0294286,1.62048,0.0367137,1.63114,0,0,1.01E+06,1.01E+06,0.0877215,0.0329368
572,0.227957,-2.5068,-3.73818,4.76417,1090.03,22.7067,-1.60299,1075.58,298.809,0,0,0.00120473,0.0001817,0.0247081,1.62382,0.0445323,1.63398,0,0,1.01E+06,1.01E+06,0.0854776,0.0328998
573,0.224953,-2.5068,-3.72651,4.77622,1088.8,25.1468,-0.47267,1075.46,313.101,0,0,0.00120473,0.0001817,0.0199874,1.62716,0.0523511,1.63681,0,0,1.01E+06,1.01E+06,0.0832336,0.0328629
574,0.22195,-2.5068,-3.71484,4.78827,1091.95,28.9702,-2.84568,1081.34,330.256,0,0,0.00120473,0.0001817,0.011277,1.63166,0.0542879,1.64093,0,0,1.01E+06,1.01E+06,0.0818236,0.0329579
575,0.218946,-2.5068,-3.70317,4.80032,1096.23,33.1516,-6.12518,1088.78,348.151,0,0,0.00120473,0.0001817,0.00153408,1.63646,0.0547028,1.64539,0,0,1.01E+06,1.01E+06,0.0806293,0.033087
576,0.215942,-2.5068,-3.6915,4.81237,1100.51,37.333,-9.40467,1096.22,366.047,0,0,0.00120473,0.0001817,-0.00820884,1.64126,0.0551177,1.64985,0,0,1.01E+06,1.01E+06,0.0794351,0.0332161
577,0.212939,-2.5068,-3.67983,4.82443,1100.65,40.4644,-10.188,1098.5,382.032,0,0,0.00120473,0.0001817,-0.016195,1.63712,0.0542361,1.64554,0,0,1.01E+06,1.01E+06,0.0783222,0.0332206
578,0.209935,-2.5068,-3.66816,4.83648,1092.1,41.3818,-5.70792,1089.88,393.986,0,0,0.00120473,0.0001817,-0.0204772,1.61413,0.0506203,1.62274,0,0,1.01E+06,1.01E+06,0.0773808,0.0329623
579,0.206931,-2.5068,-3.65649,4.84853,1088.03,42.4688,-2.63792,1085.69,408.158,0,0,0.00120473,0.0001817,-0.0252722,1.58758,0.0477259,1.59653,0,0,1.01E+06,1.01E+06,0.0769372,0.0328395
580,0.203928,-2.5068,-3.64482,4.86058,1103.44,44.292,-5.69064,1100.7,431.962,0,0,0.00120473,0.0001817,-0.0322937,1.5456,0.0479636,1.5555,0,0,1.01E+06,1.01E+06,0.0786544,0.0333047
581,0.200924,-2.5068,-3.63315,4.87263,1118.86,46.1151,-8.74343,1115.72,455.767,0,0,0.00120473,0.0001817,-0.0393153,1.50361,0.0482014,1.51447,0,0,1.01E+06,1.01E+06,0.0803716,0.03377
582,0.200947,-2.5068,-3.6289,4.87688,1123.54,46.7696,-9.6656,1120.23,463.719,0,0,0.00120473,0.0001817,-0.0421372,1.48489,0.0475212,1.49628,0,0,1.01E+06,1.01E+06,0.0814111,0.0339113
583,0.20097,-2.5068,-3.62465,4.88113,1128.22,47.4241,-10.5878,1124.74,471.671,0,0,0.00120473,0.0001817,-0.0449593,1.46617,0.0468409,1.47808,0,0,1.01E+06,1.01E+06,0.0824506,0.0340527
584,0.200993,-2.5068,-3.6204,4.88538,1132.91,48.0786,-11.51,1129.26,479.623,0,0,0.00120473,0.0001817,-0.0477812,1.44746,0.0461607,1.45988,0,0,1.01E+06,1.01E+06,0.08349,0.0341941
585,0.201016,-2.5068,-3.61614,4.88964,1136.51,48.6875,-12.231,1132.68,487.141,0,0,0.00120473,0.0001817,-0.0505674,1.42979,0.0453548,1.44273,0,0,1.01E+06,1.01E+06,0.0844256,0.0343027
586,0.201039,-2.5068,-3.61189,4.89389,1132.66,48.9824,-11.5691,1128.65,491.667,0,0,0.00120473,0.0001817,-0.0531062,1.41935,0.0436851,1.43273,0,0,1.01E+06,1.01E+06,0.0846469,0.0341867
587,0.201062,-2.5068,-3.60764,4.89814,1128.82,49.2773,-10.907,1124.62,496.194,0,0,0.00120473,0.0001817,-0.0556451,1.40891,0.0420153,1.42274,0,0,1.01E+06,1.01E+06,0.0848682,0.0340706
588,0.201085,-2.5068,-3.60338,4.9024,1124.97,49.5722,-10.2451,1120.59,500.721,0,0,0.00120473,0.0001817,-0.0581839,1.39847,0.0403457,1.41274,0,0,1.01E+06,1.01E+06,0.0850895,0.0339545
589,0.201108,-2.5068,-3.59913,4.90665,1121.12,49.8672,-9.58307,1116.56,505.248,0,0,0.00120473,0.0001817,-0.0607229,1.38803,0.0386759,1.40275,0,0,1.01E+06,1.01E+06,0.0853108,0.0338384
590,0.201131,-2.5068,-3.59488,4.9109,1117.28,50.1621,-8.9211,1112.53,509.774,0,0,0.00120473,0.0001817,-0.0632617,1.37759,0.0370062,1.39275,0,0,1.01E+06,1.01E+06,0.0855321,0.0337224
591,0.201154,-2.5068,-3.59062,4.91516,1113.43,50.457,-8.25913,1108.5,514.301,0,0,0.00120473,0.0001817,-0.0658005,1.36715,0.0353365,1.38275,0,0,1.01E+06,1.01E+06,0.0857534,0.0336063
592,0.201177,-2.5068,-3.58637,4.91941,1109.59,50.752,-7.59712,1104.47,518.828,0,0,0.00120473,0.0001817,-0.0683395,1.35671,0.0336668,1.37276,0,0,1.01E+06,1.01E+06,0.0859747,0.0334902
593,0.2012,-2.5068,-3.58212,4.92366,1105.74,51.0469,-6.93515,1100.44,523.354,0,0,0.00120473,0.0001817,-0.0708783,1.34627,0.0319971,1.36276,0,0,1.01E+06,1.01E+06,0.086196,0.0333742
594,0.201222,-2.5068,-3.57787,4.92792,1101.9,51.3418,-6.27315,1096.41,527.881,0,0,0.00120473,0.0001817,-0.0734173,1.33583,0.0303273,1.35277,0,0,1.01E+06,1.01E+06,0.0864173,0.0332581
595,0.201245,-2.5068,-3.57361,4.93217,1098.05,51.6368,-5.61118,1092.38,532.408,0,0,0.00120473,0.0001817,-0.0759561,1.32539,0.0286576,1.34277,0,0,1.01E+06,1.01E+06,0.0866386,0.033142
596,0.201268,-2.5068,-3.56936,4.93642,1094.2,51.9317,-4.94917,1088.35,536.934,0,0,0.00120473,0.0001817,-0.078495,1.31495,0.0269878,1.33277,0,0,1.01E+06,1.01E+06,0.0868599,0.0330259
597,0.201291,-2.5068,-3.56511,4.94067,1090.36,52.2266,-4.2872,1084.32,541.461,0,0,0.00120473,0.0001817,-0.0810338,1.30451,0.0253182,1.32278,0,0,1.01E+06,1.01E+06,0.0870812,0.0329099
598,0.201314,-2.5068,-3.56085,4.94493,1086.51,52.5216,-3.62519,1080.29,545.988,0,0,0.00120473,0.0001817,-0.0835728,1.29408,0.0236484,1.31278,0,0,1.01E+06,1.01E+06,0.0873025,0.0327938
599,0.201337,-2.5068,-3.5566,4.94918,1082.67,52.8165,-2.96322,1076.26,550.514,0,0,0.00120473,0.0001817,-0.0861116,1.28364,0.0219787,1.30279,0,0,1.01E+06,1.01E+06,0.0875238,0.0326777
600,0.20136,-2.5068,-3.55235,4.95343,1078.82,53.1114,-2.30121,1072.23,555.041,0,0,0.00120473,0.0001817,-0.0886506,1.2732,0.0203089,1.29279,0,0,1.01E+06,1.01E+06,0.0877451,0.0325616
601,0.201383,-2.5068,-3.54809,4.95769,1074.98,53.4064,-1.63925,1068.2,559.568,0,0,0.00120473,0.0001817,-0.0911894,1.26276,0.0186392,1.28279,0,0,1.01E+06,1.01E+06,0.0879664,0.0324456
602,0.179725,-2.5068,-3.56476,4.98502,1036.14,49.4098,5.45324,1030.49,526.894,0,0,0.00120473,0.0001817,-0.0737745,1.43947,0.0316379,1.45375,0,0,1.01E+06,1.01E+06,0.0722167,0.0312734
603,0.158066,-2.5068,-3.58143,5.01235,1039.6,45.4887,14.8638,1035.85,504.443,0,0,0.00120473,0.0001817,-0.0580049,1.49825,0.0477863,1.5079,0,0,1.01E+06,1.01E+06,0.0662337,0.0313779
604,0.136407,-2.5068,-3.5981,5.03968,1054.27,41.5878,24.8882,1052.6,484.699,0,0,0.00120473,0.0001817,-0.0426711,1.52579,0.0647685,1.53113,0,0,1.01E+06,1.01E+06,0.0628365,0.0318205
605,0.114749,-2.5068,-3.61477,5.06701,1013.24,35.6059,15.9487,1012.25,488.641,0,0,0.00120473,0.0001817,-0.0422469,1.47782,0.034254,1.48033,0,0,1.01E+06,1.01E+06,0.0594825,0.0305821
606,0.09309,-2.5068,-3.63144,5.09434,1031.74,30.8242,13.8266,1030.93,482.652,0,0,0.00120473,0.0001817,-0.0398775,1.45917,0.0231809,1.46122,0,0,1.01E+06,1.01E+06,0.0597718,0.0311405
607,0.0714314,-2.5068,-3.64811,5.12167,1050.24,26.0425,11.7044,1049.61,476.664,0,0,0.00120473,0.0001817,-0.037508,1.44051,0.0121079,1.44212,0,0,1.01E+06,1.01E+06,0.0600612,0.0316989
608,0.0497728,-2.5068,-3.66478,5.149,1068.74,21.2608,9.58234,1068.28,470.676,0,0,0.00120473,0.0001817,-0.0351386,1.42186,0.0010348,1.42301,0,0,1.01E+06,1.01E+06,0.0603506,0.0322573
609,0.0281141,-2.5068,-3.68145,5.17634,1087.24,16.479,7.46019,1086.96,464.688,0,0,0.00120473,0.0001817,-0.0327691,1.40321,-0.0100382,1.4039,0,0,1.01E+06,1.01E+06,0.0606399,0.0328157
610,0.0064555,-2.5068,-3.69812,5.20367,1109.82,11.3881,4.14173,1109.63,454.484,0,0,0.00120473,0.0001817,-0.0260382,1.37677,-0.0102329,1.37731,0,0,1.01E+06,1.01E+06,0.063174,0.0334972
611,-0.0152031,-2.5068,-3.71479,5.231,1134.29,7.41968,7.04508,1129.81,428.549,0,0,0.00120473,0.0001817,-0.0276453,1.40149,-0.0104213,1.40258,0,0,1.01E+06,1.01E+06,0.0680554,0.034236
612,-0.0368618,-2.5068,-3.73147,5.25833,1171.59,1.41943,7.55626,1165.1,405.806,0,0,0.00120473,0.0001817,-0.0278136,1.42732,-0.0117092,1.42885,0,0,1.01E+06,1.01E+06,0.0750395,0.0353616
613,-0.0585204,-2.5068,-3.74814,5.28566,1208.88,-4.58082,8.06744,1200.39,383.063,0,0,0.00120473,0.0001817,-0.0279819,1.45315,-0.0129971,1.45513,0,0,1.01E+06,1.01E+06,0.0820236,0.0364872
614,-0.080179,-2.5068,-3.76481,5.31299,1246.18,-10.5811,8.57855,1235.67,360.32,0,0,0.00120473,0.0001817,-0.0281501,1.47898,-0.0142849,1.48141,0,0,1.01E+06,1.01E+06,0.0890077,0.0376129
615,-0.101838,-2.5068,-3.78148,5.34032,1283.47,-16.5813,9.08973,1270.96,337.577,0,0,0.00120473,0.0001817,-0.0283184,1.50481,-0.0155727,1.50768,0,0,1.01E+06,1.01E+06,0.0959918,0.0387385
616,-0.123496,-2.5068,-3.79815,5.36765,1253.97,-16.4878,9.4,1249.21,303.151,0,0,0.00120473,0.0001817,-0.0490235,1.66418,-0.0303124,1.6666,0,0,1.01E+06,1.01E+06,0.0857109,0.037848
617,-0.145155,-2.5068,-3.81482,5.39498,1206.99,-15.5259,8.82331,1206.51,268.309,0,0,0.00120473,0.0001817,-0.0669782,1.76189,-0.0431314,1.76479,0,0,1.01E+06,1.01E+06,0.0777199,0.03643
618,-0.166814,-2.5068,-3.83149,5.42232,1228.15,-16.2801,4.30894,1227.71,232.926,0,0,0.00120473,0.0001817,-0.0721705,1.70658,-0.0459007,1.71023,0,0,1.01E+06,1.01E+06,0.083947,0.0370688
619,-0.188472,-2.5068,-3.84816,5.44965,1242.63,-16.0128,-2.90458,1242.22,201.77,0,0,0.00120473,0.0001817,-0.0725449,1.62951,-0.0328476,1.63411,0,0,1.01E+06,1.01E+06,0.0923828,0.0375057
620,-0.210131,-2.5068,-3.86483,5.47698,1239.42,-15.0468,-10.2511,1239.05,171.958,0,0,0.00120473,0.0001817,-0.0732802,1.56258,-0.0168843,1.56834,0,0,1.01E+06,1.01E+06,0.0993225,0.0374088
621,-0.231789,-2.5068,-3.8815,5.50431,1398.85,-10.1187,-8.65584,1298.03,141.42,0,0,0.00120473,0.0001817,-0.0616677,1.20745,-0.0318111,1.21467,0,0,1.01E+06,1.01E+06,0.128157,0.0422208
622,-0.223469,-2.5068,-3.88377,5.51294,1389.04,-10.4168,-9.57205,1297.56,138.506,0,0,0.00120473,0.0001817,-0.0640508,1.26118,-0.0345347,1.26799,0,0,1.01E+06,1.01E+06,0.124526,0.0419247
623,-0.215149,-2.5068,-3.88605,5.52156,1379.22,-10.715,-10.4883,1297.1,135.593,0,0,0.00120473,0.0001817,-0.066434,1.31492,-0.037258,1.32132,0,0,1.01E+06,1.01E+06,0.120895,0.0416285
624,-0.206828,-2.5068,-3.88833,5.53019,1369.41,-11.0131,-11.4045,1296.64,132.679,0,0,0.00120473,0.0001817,-0.0688171,1.36865,-0.0399816,1.37464,0,0,1.01E+06,1.01E+06,0.117263,0.0413324
625,-0.198508,-2.5068,-3.89061,5.53881,1354.56,-11.3349,-12.242,1293.34,129.678,0,0,0.00120473,0.0001817,-0.071524,1.42614,-0.0418969,1.43174,0,0,1.01E+06,1.01E+06,0.113128,0.0408843
626,-0.190188,-2.5068,-3.89288,5.54744,1299.39,-11.8451,-12.4484,1267.3,125.968,0,0,0.00120473,0.0001817,-0.0768241,1.51374,-0.0373404,1.51912,0,0,1.01E+06,1.01E+06,0.104957,0.0392191
627,-0.181867,-2.5068,-3.89516,5.55607,1270.39,-12.5798,-14.6191,1256.53,126.235,0,0,0.00120473,0.0001817,-0.0793802,1.59723,-0.0336912,1.60205,0,0,1.01E+06,1.01E+06,0.0992217,0.0383438
628,-0.173547,-2.5068,-3.89744,5.56469,1260.89,-13.4815,-18.253,1257.13,129.465,0,0,0.00120473,0.0001817,-0.0798922,1.67765,-0.0307177,1.68165,0,0,1.01E+06,1.01E+06,0.0953018,0.0380569
629,-0.165226,-2.5068,-3.89971,5.57332,1242.05,-13.1481,-19.8853,1241.7,131.66,0,0,0.00120473,0.0001817,-0.080663,1.73391,-0.0285689,1.73749,0,0,1.01E+06,1.01E+06,0.0914652,0.0374883
630,-0.156906,-2.5068,-3.90199,5.58195,1218.44,-12.1838,-20.4954,1218.09,133.327,0,0,0.00120473,0.0001817,-0.081566,1.77782,-0.0268412,1.78118,0,0,1.01E+06,1.01E+06,0.0876715,0.0367758
631,-0.148586,-2.5068,-3.90427,5.59057,1201.55,-11.4039,-21.3585,1201.18,134.945,0,0,0.00120473,0.0001817,-0.0817584,1.81501,-0.0245161,1.81809,0,0,1.01E+06,1.01E+06,0.0847618,0.0362659
632,-0.140265,-2.5068,-3.90655,5.5992,1231.73,-11.917,-23.9959,1231.31,136.223,0,0,0.00120473,0.0001817,-0.0769657,1.80504,-0.0179998,1.80739,0,0,1.01E+06,1.01E+06,0.0880542,0.0371769
633,-0.131945,-2.5068,-3.90882,5.60783,1247.01,-12.5128,-25.7283,1246.53,136.4,0,0,0.00120473,0.0001817,-0.0722796,1.79157,-0.0134768,1.79345,0,0,1.01E+06,1.01E+06,0.0902894,0.0376381
634,-0.123624,-2.5068,-3.9111,5.61645,1241.98,-13.2214,-26.2268,1241.44,135.079,0,0,0.00120473,0.0001817,-0.0677388,1.77334,-0.0116712,1.77509,0,0,1.01E+06,1.01E+06,0.0910834,0.0374861
635,-0.115304,-2.5068,-3.91338,5.62508,1236.94,-13.9301,-26.7254,1236.34,133.756,0,0,0.00120473,0.0001817,-0.063198,1.75511,-0.0098656,1.75672,0,0,1.01E+06,1.01E+06,0.0918774,0.037334
636,-0.106984,-2.5068,-3.91565,5.63371,1231.9,-14.6387,-27.2239,1231.25,132.434,0,0,0.00120473,0.0001817,-0.0586572,1.73688,-0.00806,1.73836,0,0,1.01E+06,1.01E+06,0.0926713,0.037182
637,-0.0986633,-2.5068,-3.91793,5.64233,1226.87,-15.3473,-27.7224,1226.15,131.112,0,0,0.00120473,0.0001817,-0.0541164,1.71865,-0.0062544,1.71999,0,0,1.01E+06,1.01E+06,0.0934653,0.03703
638,-0.0903429,-2.5068,-3.92021,5.65096,1221.83,-16.0559,-28.2209,1221.05,129.79,0,0,0.00120473,0.0001817,-0.0495756,1.70042,-0.0044488,1.70163,0,0,1.01E+06,1.01E+06,0.0942593,0.036878
639,-0.0820225,-2.5068,-3.92249,5.65958,1216.79,-16.7646,-28.7195,1215.96,128.468,0,0,0.00120473,0.0001817,-0.0450348,1.68219,-0.0026432,1.68326,0,0,1.01E+06,1.01E+06,0.0950533,0.036726
640,-0.0737021,-2.5068,-3.92476,5.66821,1211.76,-17.4732,-29.218,1210.86,127.146,0,0,0.00120473,0.0001817,-0.040494,1.66396,-0.0008376,1.6649,0,0,1.01E+06,1.01E+06,0.0958473,0.0365739
641,-0.0653817,-2.5068,-3.92704,5.67684,1206.72,-18.1818,-29.7165,1205.76,125.824,0,0,0.00120473,0.0001817,-0.0359531,1.64573,0.000967995,1.64654,0,0,1.01E+06,1.01E+06,0.0966413,0.0364219
642,-0.0702186,-2.5068,-3.91616,5.68874,1220.06,-16.1271,-27.8796,1219.26,139.797,0,0,0.00120473,0.0001817,-0.0407326,1.68437,0.000319688,1.68528,0,0,1.01E+06,1.01E+06,0.0945367,0.0368245
643,-0.0750554,-2.5068,-3.90529,5.70065,1233.39,-14.0723,-26.0428,1232.75,153.77,0,0,0.00120473,0.0001817,-0.045512,1.723,-0.00032863,1.72402,0,0,1.01E+06,1.01E+06,0.0924321,0.037227
644,-0.0798923,-2.5068,-3.89441,5.71255,1246.73,-12.0176,-24.206,1246.24,167.743,0,0,0.00120473,0.0001817,-0.0502915,1.76164,-0.000976938,1.76276,0,0,1.01E+06,1.01E+06,0.0903276,0.0376296
645,-0.0847291,-2.5068,-3.88353,5.72446,1260.07,-9.96281,-22.3691,1259.74,181.716,0,0,0.00120473,0.0001817,-0.0550709,1.80027,-0.00162524,1.8015,0,0,1.01E+06,1.01E+06,0.088223,0.0380321
646,-0.089566,-2.5068,-3.87265,5.73636,1264.57,-9.17602,-19.3349,1264.31,196.051,0,0,0.00120473,0.0001817,-0.0577298,1.81813,-0.00416575,1.81948,0,0,1.01E+06,1.01E+06,0.0864365,0.0381679
647,-0.0944028,-2.5068,-3.86177,5.74827,1263.67,-10.256,-15.1316,1262.89,211.715,0,0,0.00120473,0.0001817,-0.0565476,1.79797,-0.00801304,1.79944,0,0,1.01E+06,1.01E+06,0.0862353,0.0381408
648,-0.0992397,-2.5068,-3.8509,5.76017,1262.18,-11.3163,-10.969,1260.69,227.401,0,0,0.00120473,0.0001817,-0.0551665,1.77447,-0.0117244,1.7761,0,0,1.01E+06,1.01E+06,0.0862004,0.038096
649,-0.104077,-2.5068,-3.84002,5.77208,1260.7,-12.3766,-6.80653,1258.49,243.086,0,0,0.00120473,0.0001817,-0.0537854,1.75097,-0.0154358,1.75277,0,0,1.01E+06,1.01E+06,0.0861654,0.0380511
650,-0.108913,-2.5068,-3.82914,5.78398,1259.21,-13.4369,-2.64397,1256.29,258.771,0,0,0.00120473,0.0001817,-0.0524043,1.72747,-0.0191472,1.72943,0,0,1.01E+06,1.01E+06,0.0861305,0.0380063
651,-0.11375,-2.5068,-3.81826,5.79589,1257.73,-14.4972,1.51858,1254.09,274.456,0,0,0.00120473,0.0001817,-0.0510231,1.70397,-0.0228586,1.70609,0,0,1.01E+06,1.01E+06,0.0860955,0.0379614
652,-0.118587,-2.5068,-3.80738,5.80779,1256.24,-15.5575,5.68106,1251.89,290.141,0,0,0.00120473,0.0001817,-0.0496421,1.68047,-0.02657,1.68276,0,0,1.01E+06,1.01E+06,0.0860606,0.0379166
653,-0.123424,-2.5068,-3.79651,5.8197,1254.75,-16.6178,9.84361,1249.69,305.826,0,0,0.00120473,0.0001817,-0.0482609,1.65696,-0.0302814,1.65942,0,0,1.01E+06,1.01E+06,0.0860256,0.0378718
654,-0.128261,-2.5068,-3.78563,5.8316,1253.27,-17.678,14.0061,1247.49,321.511,0,0,0.00120473,0.0001817,-0.0468799,1.63346,-0.0339928,1.63608,0,0,1.01E+06,1.01E+06,0.0859907,0.0378269
655,-0.133098,-2.5068,-3.77475,5.84351,1251.78,-18.7383,18.1686,1245.29,337.197,0,0,0.00120473,0.0001817,-0.0454987,1.60996,-0.0377042,1.61275,0,0,1.01E+06,1.01E+06,0.0859557,0.0377821
656,-0.137934,-2.5068,-3.76387,5.85541,1250.3,-19.7986,22.3312,1243.09,352.882,0,0,0.00120473,0.0001817,-0.0441176,1.58646,-0.0414157,1.58941,0,0,1.01E+06,1.01E+06,0.0859208,0.0377372
657,-0.142771,-2.5068,-3.75299,5.86732,1248.81,-20.8589,26.4937,1240.88,368.567,0,0,0.00120473,0.0001817,-0.0427365,1.56296,-0.045127,1.56607,0,0,1.01E+06,1.01E+06,0.0858858,0.0376924
658,-0.147608,-2.5068,-3.74212,5.87922,1247.33,-21.9192,30.6562,1238.68,384.252,0,0,0.00120473,0.0001817,-0.0413554,1.53946,-0.0488384,1.54274,0,0,1.01E+06,1.01E+06,0.0858509,0.0376476
659,-0.152445,-2.5068,-3.73124,5.89112,1244.95,-22.8979,34.8161,1235.72,399.781,0,0,0.00120473,0.0001817,-0.0402492,1.51775,-0.05273,1.52118,0,0,1.01E+06,1.01E+06,0.0855848,0.0375757
660,-0.157282,-2.5068,-3.72036,5.90303,1233.18,-23.1165,38.7892,1224.96,413.794,0,0,0.00120473,0.0001817,-0.0420369,1.51593,-0.0584856,1.51938,0,0,1.01E+06,1.01E+06,0.0828726,0.0372207
661,-0.162119,-2.5068,-3.70948,5.91493,1230.48,-27.1621,37.017,1228.05,434.397,0,0,0.00120473,0.0001817,-0.0387965,1.52153,-0.0582179,1.52508,0,0,1.01E+06,1.01E+06,0.0827309,0.0371391
662,-0.150679,-2.5068,-3.7152,5.92773,1227.93,-23.0826,36.628,1222.19,423.52,0,0,0.00120473,0.0001817,-0.0402069,1.51027,-0.0565452,1.51362,0,0,1.01E+06,1.01E+06,0.0820529,0.037062
663,-0.13924,-2.5068,-3.72093,5.94052,1222,-19.2268,34.5453,1214.01,413.839,0,0,0.00120473,0.0001817,-0.0401659,1.50192,-0.0520017,1.50508,0,0,1.01E+06,1.01E+06,0.0812822,0.0368831
664,-0.127801,-2.5068,-3.72665,5.95331,1222.77,-17.3124,30.2797,1214.54,407.065,0,0,0.00120473,0.0001817,-0.0381978,1.496,-0.0457597,1.499,0,0,1.01E+06,1.01E+06,0.0819464,0.0369064
665,-0.116361,-2.5068,-3.73237,5.9661,1223.54,-15.398,26.0141,1215.07,400.29,0,0,0.00120473,0.0001817,-0.0362298,1.49008,-0.0395177,1.49292,0,0,1.01E+06,1.01E+06,0.0826106,0.0369296
666,-0.104922,-2.5068,-3.73809,5.97889,1224.31,-13.4836,21.7486,1215.6,393.516,0,0,0.00120473,0.0001817,-0.0342617,1.48416,-0.0332757,1.48685,0,0,1.01E+06,1.01E+06,0.0832747,0.0369529
667,-0.0934828,-2.5068,-3.74381,5.99168,1225.08,-11.5692,17.483,1216.13,386.741,0,0,0.00120473,0.0001817,-0.0322937,1.47824,-0.0270337,1.48077,0,0,1.01E+06,1.01E+06,0.0839389,0.0369761
668,-0.0820435,-2.5068,-3.74953,6.00447,1225.85,-9.65474,13.2174,1216.67,379.966,0,0,0.00120473,0.0001817,-0.0303256,1.47232,-0.0207917,1.4747,0,0,1.01E+06,1.01E+06,0.0846031,0.0369994
669,-0.0706042,-2.5068,-3.75526,6.01726,1226.62,-7.7403,8.9519,1217.2,373.192,0,0,0.00120473,0.0001817,-0.0283576,1.4664,-0.0145498,1.46862,0,0,1.01E+06,1.01E+06,0.0852673,0.0370226
670,-0.0591649,-2.5068,-3.76098,6.03005,1227.39,-5.82588,4.68631,1217.73,366.417,0,0,0.00120473,0.0001817,-0.0263895,1.46048,-0.00830777,1.46254,0,0,1.01E+06,1.01E+06,0.0859315,0.0370459
671,-0.0477256,-2.5068,-3.7667,6.04284,1228.16,-3.91144,0.420788,1218.26,359.643,0,0,0.00120473,0.0001817,-0.0244215,1.45456,-0.00206584,1.45647,0,0,1.01E+06,1.01E+06,0.0865956,0.0370691
672,-0.0362862,-2.5068,-3.77242,6.05563,1228.93,-1.99703,-3.8448,1218.79,352.868,0,0,0.00120473,0.0001817,-0.0224535,1.44864,0.00417617,1.45039,0,0,1.01E+06,1.01E+06,0.0872598,0.0370924
673,-0.0248469,-2.5068,-3.77814,6.06842,1229.7,-0.0826112,-8.11039,1219.32,346.093,0,0,0.00120473,0.0001817,-0.0204854,1.44272,0.0104182,1.44432,0,0,1.01E+06,1.01E+06,0.087924,0.0371156
674,-0.0134076,-2.5068,-3.78387,6.08121,1223.34,0.326727,-8.25021,1217.21,335.757,0,0,0.00120473,0.0001817,-0.0195779,1.43208,0.00862165,1.43313,0,0,1.01E+06,1.01E+06,0.0866712,0.0369237
675,-0.00196828,-2.5068,-3.78959,6.094,1222.28,-2.08467,-7.14794,1218.33,324.13,0,0,0.00120473,0.0001817,-0.0185225,1.4246,-0.00290211,1.42537,0,0,1.01E+06,1.01E+06,0.0862126,0.0368916
676,0.00947104,-2.5068,-3.79531,6.10679,1242.02,-6.85664,-10.7031,1229.36,316.152,0,0,0.00120473,0.0001817,-0.0154692,1.43028,-0.0178808,1.43189,0,0,1.01E+06,1.01E+06,0.0902692,0.0374875
677,0.0209104,-2.5068,-3.80103,6.11958,1254.97,-9.20901,-13.7405,1236.97,307.109,0,0,0.00120473,0.0001817,-0.0111937,1.44452,-0.0272716,1.44667,0,0,1.01E+06,1.01E+06,0.0928248,0.0378783
678,0.0323497,-2.5068,-3.80675,6.13237,1257.74,-7.93511,-16.0019,1239.44,296.467,0,0,0.00120473,0.0001817,-0.00508657,1.47159,-0.0282876,1.47382,0,0,1.01E+06,1.01E+06,0.0931312,0.0379618
679,0.043789,-2.5068,-3.81248,6.14516,1260.5,-6.66121,-18.2633,1241.91,285.825,0,0,0.00120473,0.0001817,0.00102057,1.49866,-0.0293035,1.50097,0,0,1.01E+06,1.01E+06,0.0934375,0.0380452
680,0.0552283,-2.5068,-3.8182,6.15796,1263.27,-5.38725,-20.5247,1244.38,275.183,0,0,0.00120473,0.0001817,0.00712769,1.52572,-0.0303194,1.52812,0,0,1.01E+06,1.01E+06,0.0937438,0.0381286
681,0.0666676,-2.5068,-3.82392,6.17075,1266.03,-4.11335,-22.7861,1246.85,264.541,0,0,0.00120473,0.0001817,0.0132348,1.55279,-0.0313354,1.55527,0,0,1.01E+06,1.01E+06,0.0940501,0.0382121
682,0.0674643,-2.5068,-3.81507,6.17963,1251.65,-2.01526,-21.1447,1233.77,276.442,0,0,0.00120473,0.0001817,0.0125701,1.54955,-0.0306755,1.55191,0,0,1.01E+06,1.01E+06,0.091116,0.0377781
683,0.0682609,-2.5068,-3.80622,6.18851,1237.27,0.0827786,-19.5033,1220.69,288.343,0,0,0.00120473,0.0001817,0.0119054,1.54632,-0.0300157,1.54856,0,0,1.01E+06,1.01E+06,0.0881819,0.0373441
684,0.0690575,-2.5068,-3.79737,6.1974,1222.89,2.18087,-17.8619,1207.61,300.244,0,0,0.00120473,0.0001817,0.0112407,1.54308,-0.0293558,1.5452,0,0,1.01E+06,1.01E+06,0.0852478,0.0369101
685,0.0698541,-2.5068,-3.78853,6.20628,1208.52,4.27891,-16.2205,1194.53,312.144,0,0,0.00120473,0.0001817,0.010576,1.53985,-0.028696,1.54185,0,0,1.01E+06,1.01E+06,0.0823137,0.0364762
686,0.0706508,-2.5068,-3.77968,6.21517,1194.14,6.377,-14.579,1181.45,324.045,0,0,0.00120473,0.0001817,0.00991133,1.53662,-0.0280361,1.5385,0,0,1.01E+06,1.01E+06,0.0793796,0.0360422
687,0.0714474,-2.5068,-3.77083,6.22405,1179.76,8.47509,-12.9376,1168.37,335.946,0,0,0.00120473,0.0001817,0.00924661,1.53338,-0.0273763,1.53514,0,0,1.01E+06,1.01E+06,0.0764454,0.0356082
688,0.072244,-2.5068,-3.76198,6.23294,1168.03,10.3515,-11.2826,1157.74,347.006,0,0,0.00120473,0.0001817,0.00768302,1.53066,-0.0248864,1.53233,0,0,1.01E+06,1.01E+06,0.0740847,0.0352543
689,0.0730406,-2.5068,-3.75313,6.24182,1161.11,11.8271,-9.60295,1151.54,356.545,0,0,0.00120473,0.0001817,0.00449303,1.52885,-0.0190856,1.53051,0,0,1.01E+06,1.01E+06,0.0727613,0.0350454
690,0.0738372,-2.5068,-3.74428,6.25071,1154.19,13.3026,-7.92336,1145.33,366.084,0,0,0.00120473,0.0001817,0.00130313,1.52705,-0.0132849,1.52868,0,0,1.01E+06,1.01E+06,0.0714379,0.0348365
691,0.0746339,-2.5068,-3.73543,6.25959,1147.27,14.7782,-6.24372,1139.13,375.623,0,0,0.00120473,0.0001817,-0.00188687,1.52524,-0.00748411,1.52686,0,0,1.01E+06,1.01E+06,0.0701144,0.0346275
692,0.0754305,-2.5068,-3.72659,6.26847,1140.35,16.2538,-4.56408,1132.93,385.162,0,0,0.00120473,0.0001817,-0.00507686,1.52344,-0.00168329,1.52503,0,0,1.01E+06,1.01E+06,0.068791,0.0344186
693,0.0762271,-2.5068,-3.71774,6.27736,1133.42,17.7293,-2.88449,1126.73,394.7,0,0,0.00120473,0.0001817,-0.00826677,1.52163,0.00411739,1.5232,0,0,1.01E+06,1.01E+06,0.0674676,0.0342097
694,0.0770237,-2.5068,-3.70889,6.28624,1126.5,19.2049,-1.20485,1120.53,404.239,0,0,0.00120473,0.0001817,-0.0114568,1.51983,0.00991821,1.52138,0,0,1.01E+06,1.01E+06,0.0661441,0.0340007
695,0.0778204,-2.5068,-3.70004,6.29513,1119.58,20.6804,0.474738,1114.33,413.778,0,0,0.00120473,0.0001817,-0.0146467,1.51802,0.0157189,1.51955,0,0,1.01E+06,1.01E+06,0.0648207,0.0337918
696,0.078617,-2.5068,-3.69119,6.30401,1114.82,22.7082,1.76037,1110.25,423.921,0,0,0.00120473,0.0001817,-0.0177884,1.51672,0.0212135,1.51824,0,0,1.01E+06,1.01E+06,0.0637185,0.0336483
697,0.0794136,-2.5068,-3.68234,6.3129,1111.57,25.6796,1.9153,1108.92,437.148,0,0,0.00120473,0.0001817,-0.0211391,1.5212,0.0227928,1.52257,0,0,1.01E+06,1.01E+06,0.0628326,0.0335502
698,0.0802102,-2.5068,-3.67349,6.32178,1095.16,25.797,4.02198,1094.68,447.572,0,0,0.00120473,0.0001817,-0.0249106,1.51905,0.0226622,1.52028,0,0,1.01E+06,1.01E+06,0.0612054,0.0330547
699,0.0810069,-2.5068,-3.66465,6.33066,1081.04,26.5325,6.28919,1080.5,455.869,0,0,0.00120473,0.0001817,-0.0284721,1.50155,0.0215149,1.50293,0,0,1.01E+06,1.01E+06,0.0608715,0.0326287
700,0.0818035,-2.5068,-3.6558,6.33955,1066.93,27.2679,8.55633,1066.33,464.167,0,0,0.00120473,0.0001817,-0.0320335,1.48405,0.0203677,1.48559,0,0,1.01E+06,1.01E+06,0.0605376,0.0322027
701,0.0826001,-2.5068,-3.64695,6.34843,1052.82,28.0034,10.8235,1052.15,472.464,0,0,0.00120473,0.0001817,-0.035595,1.46654,0.0192205,1.46825,0,0,1.01E+06,1.01E+06,0.0602037,0.0317768
702,0.0851097,-2.5068,-3.64938,6.35192,1057.78,28.2612,9.91069,1057.13,468.883,0,0,0.00120473,0.0001817,-0.0340306,1.47833,0.0213263,1.48002,0,0,1.01E+06,1.01E+06,0.0603413,0.0319267
703,0.0876193,-2.5068,-3.6518,6.35542,1062.75,28.5191,8.99778,1062.1,465.301,0,0,0.00120473,0.0001817,-0.032466,1.49012,0.0234322,1.49178,0,0,1.01E+06,1.01E+06,0.0604789,0.0320766
704,0.0901288,-2.5068,-3.65423,6.35891,1067.72,28.7769,8.08493,1067.08,461.719,0,0,0.00120473,0.0001817,-0.0309015,1.50191,0.0255381,1.50355,0,0,1.01E+06,1.01E+06,0.0606164,0.0322265
705,0.0926384,-2.5068,-3.65666,6.3624,1072.68,29.0348,7.17208,1072.06,458.138,0,0,0.00120473,0.0001817,-0.0293371,1.5137,0.0276439,1.51531,0,0,1.01E+06,1.01E+06,0.060754,0.0323764
706,0.095148,-2.5068,-3.65909,6.36589,1077.65,29.2927,6.25923,1077.03,454.556,0,0,0.00120473,0.0001817,-0.0277726,1.52549,0.0297498,1.52708,0,0,1.01E+06,1.01E+06,0.0608916,0.0325263
707,0.0976575,-2.5068,-3.66151,6.36938,1082.62,29.5505,5.34639,1082.01,450.975,0,0,0.00120473,0.0001817,-0.0262082,1.53727,0.0318556,1.53884,0,0,1.01E+06,1.01E+06,0.0610292,0.0326762
708,0.100167,-2.5068,-3.66394,6.37287,1087.58,29.8084,4.43348,1086.99,447.393,0,0,0.00120473,0.0001817,-0.0246436,1.54906,0.0339615,1.55061,0,0,1.01E+06,1.01E+06,0.0611668,0.0328261
709,0.102677,-2.5068,-3.66637,6.37637,1092.55,30.0662,3.52063,1091.96,443.811,0,0,0.00120473,0.0001817,-0.0230792,1.56085,0.0360673,1.56237,0,0,1.01E+06,1.01E+06,0.0613044,0.032976
710,0.105186,-2.5068,-3.6688,6.37986,1097.52,30.3241,2.60778,1096.94,440.23,0,0,0.00120473,0.0001817,-0.0215147,1.57264,0.0381732,1.57414,0,0,1.01E+06,1.01E+06,0.061442,0.0331259
711,0.107696,-2.5068,-3.67123,6.38335,1102.49,30.5819,1.69487,1101.92,436.648,0,0,0.00120473,0.0001817,-0.0199502,1.58443,0.0402791,1.5859,0,0,1.01E+06,1.01E+06,0.0615796,0.0332759
712,0.110205,-2.5068,-3.67365,6.38684,1108.57,31.1388,0.859647,1106.92,432.038,0,0,0.00120473,0.0001817,-0.018284,1.58879,0.0418931,1.59039,0,0,1.01E+06,1.01E+06,0.0623428,0.0334594
713,0.112715,-2.5068,-3.67608,6.39033,1114.7,31.7089,0.0278891,1111.93,427.382,0,0,0.00120473,0.0001817,-0.0166134,1.59282,0.0434852,1.59455,0,0,1.01E+06,1.01E+06,0.0631339,0.0336445
714,0.115225,-2.5068,-3.67851,6.39382,1120.83,32.2791,-0.803869,1116.94,422.726,0,0,0.00120473,0.0001817,-0.0149427,1.59685,0.0450774,1.59871,0,0,1.01E+06,1.01E+06,0.063925,0.0338295
715,0.117734,-2.5068,-3.68094,6.39732,1121.26,31.59,-0.894443,1116.81,417.395,0,0,0.00120473,0.0001817,-0.0134823,1.60141,0.0462004,1.60334,0,0,1.01E+06,1.01E+06,0.064156,0.0338426
716,0.120244,-2.5068,-3.68336,6.40081,1116.97,29.8562,-0.370145,1112.43,411.505,0,0,0.00120473,0.0001817,-0.0121962,1.60641,0.0469343,1.60836,0,0,1.01E+06,1.01E+06,0.0639222,0.033713
717,0.122753,-2.5068,-3.68579,6.4043,1119.16,29.7748,-1.02486,1114.38,407.426,0,0,0.00120473,0.0001817,-0.0107659,1.61294,0.0467522,1.61492,0,0,1.01E+06,1.01E+06,0.0643505,0.0337791
718,0.125263,-2.5068,-3.68822,6.40779,1121.73,29.7899,-1.74843,1116.71,403.452,0,0,0.00120473,0.0001817,-0.00932713,1.61954,0.0465165,1.62156,0,0,1.01E+06,1.01E+06,0.0648174,0.0338567
719,0.127772,-2.5068,-3.69065,6.41128,1124.3,29.8049,-2.47205,1119.04,399.478,0,0,0.00120473,0.0001817,-0.00788828,1.62615,0.0462807,1.62821,0,0,1.01E+06,1.01E+06,0.0652843,0.0339342
720,0.130282,-2.5068,-3.69307,6.41477,1126.87,29.82,-3.19562,1121.37,395.504,0,0,0.00120473,0.0001817,-0.00644952,1.63276,0.046045,1.63485,0,0,1.01E+06,1.01E+06,0.0657512,0.0340118
721,0.132791,-2.5068,-3.6955,6.41827,1129.44,29.8351,-3.91919,1123.7,391.53,0,0,0.00120473,0.0001817,-0.00501076,1.63937,0.0458093,1.6415,0,0,1.01E+06,1.01E+06,0.066218,0.0340893
722,0.136772,-2.5068,-3.69422,6.42245,1129.39,30.6434,-4.04848,1123.69,390.987,0,0,0.00120473,0.0001817,-0.00467378,1.64777,0.0485692,1.64994,0,0,1.01E+06,1.01E+06,0.0661737,0.0340878
723,0.140752,-2.5068,-3.69294,6.42663,1129.33,31.4517,-4.17776,1123.68,390.444,0,0,0.00120473,0.0001817,-0.00433681,1.65617,0.051329,1.65838,0,0,1.01E+06,1.01E+06,0.0661293,0.0340862
724,0.144732,-2.5068,-3.69166,6.43081,1129.28,32.26,-4.30704,1123.68,389.902,0,0,0.00120473,0.0001817,-0.00399983,1.66457,0.0540888,1.66682,0,0,1.01E+06,1.01E+06,0.0660849,0.0340847
725,0.148712,-2.5068,-3.69038,6.43499,1129.23,33.0683,-4.43633,1123.67,389.359,0,0,0.00120473,0.0001817,-0.00366286,1.67297,0.0568486,1.67526,0,0,1.01E+06,1.01E+06,0.0660405,0.0340831
726,0.152692,-2.5068,-3.6891,6.43917,1129.18,33.8766,-4.56561,1123.66,388.817,0,0,0.00120473,0.0001817,-0.00332588,1.68137,0.0596084,1.6837,0,0,1.01E+06,1.01E+06,0.0659961,0.0340816
727,0.156672,-2.5068,-3.68782,6.44335,1129.13,34.6849,-4.69489,1123.65,388.274,0,0,0.00120473,0.0001817,-0.00298891,1.68977,0.0623682,1.69214,0,0,1.01E+06,1.01E+06,0.0659517,0.03408
728,0.160652,-2.5068,-3.68654,6.44753,1129.08,35.4932,-4.82418,1123.65,387.732,0,0,0.00120473,0.0001817,-0.00265194,1.69817,0.065128,1.70058,0,0,1.01E+06,1.01E+06,0.0659073,0.0340784
729,0.164632,-2.5068,-3.68526,6.45171,1129.02,36.3015,-4.95346,1123.64,387.189,0,0,0.00120473,0.0001817,-0.00231496,1.70657,0.0678879,1.70902,0,0,1.01E+06,1.01E+06,0.0658629,0.0340769
730,0.168612,-2.5068,-3.68398,6.45589,1127.83,37.0418,-4.98886,1122.54,386.705,0,0,0.00120473,0.0001817,-0.00195549,1.71517,0.0703346,1.71766,0,0,1.01E+06,1.01E+06,0.0657302,0.0340408
731,0.172592,-2.5068,-3.6827,6.46007,1113,36.9706,-3.90385,1108.48,386.921,0,0,0.00120473,0.0001817,-0.00132754,1.72608,0.0690448,1.72867,0,0,1.01E+06,1.01E+06,0.0645426,0.0335932
732,0.176573,-2.5068,-3.68142,6.46426,1098.17,36.8994,-2.81887,1094.42,387.137,0,0,0.00120473,0.0001817,-0.0006995,1.737,0.0677549,1.73968,0,0,1.01E+06,1.01E+06,0.063355,0.0331455
733,0.180553,-2.5068,-3.68014,6.46844,1095,36.9667,-2.08983,1091.01,386.773,0,0,0.00120473,0.0001817,-0.00105486,1.72882,0.0695202,1.73198,0,0,1.01E+06,1.01E+06,0.0641886,0.03305
734,0.184533,-2.5068,-3.67886,6.47262,1096.75,38.0144,-3.84442,1093.48,388.298,0,0,0.00120473,0.0001817,-0.00433242,1.71834,0.0677075,1.72214,0,0,1.01E+06,1.01E+06,0.0659271,0.0331029
735,0.188513,-2.5068,-3.67758,6.4768,1098.51,39.0621,-5.599,1095.95,389.823,0,0,0.00120473,0.0001817,-0.00760998,1.70786,0.0658948,1.71231,0,0,1.01E+06,1.01E+06,0.0676656,0.0331558
736,0.192493,-2.5068,-3.6763,6.48098,1100.26,40.1098,-7.35358,1098.42,391.347,0,0,0.00120473,0.0001817,-0.0108875,1.69739,0.0640821,1.70247,0,0,1.01E+06,1.01E+06,0.0694042,0.0332087
737,0.196473,-2.5068,-3.67502,6.48516,1099.82,40.5992,-7.78073,1098.14,391.856,0,0,0.00120473,0.0001817,-0.0132309,1.68216,0.0615798,1.68797,0,0,1.01E+06,1.01E+06,0.071186,0.0331953
738,0.200453,-2.5068,-3.67374,6.48934,1098.12,40.7687,-7.44771,1096.29,391.782,0,0,0.00120473,0.0001817,-0.0150394,1.66421,0.0586827,1.6708,0,0,1.01E+06,1.01E+06,0.0729926,0.033144
739,0.204433,-2.5068,-3.67246,6.49352,1096.42,40.9383,-7.11469,1094.44,391.708,0,0,0.00120473,0.0001817,-0.0168478,1.64625,0.0557856,1.65363,0,0,1.01E+06,1.01E+06,0.0747992,0.0330927
740,0.208413,-2.5068,-3.67118,6.4977,1094.72,41.1079,-6.78166,1092.59,391.634,0,0,0.00120473,0.0001817,-0.0186563,1.6283,0.0528885,1.63646,0,0,1.01E+06,1.01E+06,0.0766057,0.0330414
741,0.212393,-2.5068,-3.6699,6.50188,1093.02,41.2775,-6.44864,1090.74,391.56,0,0,0.00120473,0.0001817,-0.0204647,1.61035,0.0499914,1.61929,0,0,1.01E+06,1.01E+06,0.0784123,0.03299
742,0.216932,-2.5068,-3.66895,6.50652,1091.47,41.429,-6.25816,1089.03,391,0,0,0.00120473,0.0001817,-0.0223008,1.59134,0.0469202,1.60114,0,0,1.01E+06,1.01E+06,0.0804553,0.0329434
743,0.22147,-2.5068,-3.66799,6.51116,1089.93,41.5805,-6.06777,1087.32,390.44,0,0,0.00120473,0.0001817,-0.0241368,1.57233,0.0438491,1.583,0,0,1.01E+06,1.01E+06,0.0824983,0.0328968
744,0.226008,-2.5068,-3.66704,6.51579,1088.38,41.7321,-5.8773,1085.62,389.88,0,0,0.00120473,0.0001817,-0.0259729,1.55332,0.0407779,1.56485,0,0,1.01E+06,1.01E+06,0.0845412,0.0328501
745,0.230546,-2.5068,-3.66608,6.52043,1086.84,41.8836,-5.68691,1083.91,389.319,0,0,0.00120473,0.0001817,-0.0278089,1.53432,0.0377068,1.5467,0,0,1.01E+06,1.01E+06,0.0865842,0.0328035
746,0.235084,-2.5068,-3.66513,6.52507,1085.29,42.0351,-5.49643,1082.2,388.759,0,0,0.00120473,0.0001817,-0.029645,1.51531,0.0346356,1.52855,0,0,1.01E+06,1.01E+06,0.0886271,0.0327569
747,0.239622,-2.5068,-3.66418,6.52971,1083.75,42.1866,-5.30604,1080.49,388.199,0,0,0.00120473,0.0001817,-0.031481,1.4963,0.0315645,1.51041,0,0,1.01E+06,1.01E+06,0.0906701,0.0327102
748,0.24416,-2.5068,-3.66322,6.53434,1082.2,42.3382,-5.11556,1078.78,387.639,0,0,0.00120473,0.0001817,-0.0333171,1.47729,0.0284933,1.49226,0,0,1.01E+06,1.01E+06,0.092713,0.0326636
749,0.248698,-2.5068,-3.66227,6.53898,1080.66,42.4897,-4.92517,1077.07,387.079,0,0,0.00120473,0.0001817,-0.0351531,1.45829,0.0254222,1.47411,0,0,1.01E+06,1.01E+06,0.094756,0.032617
750,0.253236,-2.5068,-3.66131,6.54362,1079.11,42.6412,-4.7347,1075.36,386.518,0,0,0.00120473,0.0001817,-0.0369892,1.43928,0.022351,1.45597,0,0,1.01E+06,1.01E+06,0.096799,0.0325703
751,0.257774,-2.5068,-3.66036,6.54826,1077.57,42.7927,-4.54431,1073.66,385.958,0,0,0.00120473,0.0001817,-0.0388252,1.42027,0.01928,1.43782,0,0,1.01E+06,1.01E+06,0.0988419,0.0325237
752,0.262312,-2.5068,-3.65941,6.55289,1076.02,42.9443,-4.35383,1071.95,385.398,0,0,0.00120473,0.0001817,-0.0406613,1.40126,0.0162088,1.41967,0,0,1.01E+06,1.01E+06,0.100885,0.0324771
753,0.26685,-2.5068,-3.65845,6.55753,1074.47,43.0958,-4.16335,1070.24,384.838,0,0,0.00120473,0.0001817,-0.0424974,1.38225,0.0131376,1.40153,0,0,1.01E+06,1.01E+06,0.102928,0.0324304
754,0.271388,-2.5068,-3.6575,6.56217,1072.93,43.2473,-3.97296,1068.53,384.278,0,0,0.00120473,0.0001817,-0.0443334,1.36325,0.0100665,1.38338,0,0,1.01E+06,1.01E+06,0.104971,0.0323838
755,0.275926,-2.5068,-3.65654,6.5668,1115.68,46.0066,-5.37798,1075.6,389.096,0,0,0.00120473,0.0001817,-0.0491372,1.42831,0.0129169,1.45362,0,0,1.01E+06,1.01E+06,0.105702,0.033674
756,0.280464,-2.5068,-3.65559,6.57144,1152.67,48.6265,-6.09229,1082.01,394,0,0,0.00120473,0.0001817,-0.0526483,1.51801,0.0196448,1.54761,0,0,1.01E+06,1.01E+06,0.105434,0.0347906
757,0.285002,-2.5068,-3.65464,6.57608,1183.22,51.0769,-6.06886,1087.63,398.939,0,0,0.00120473,0.0001817,-0.0547902,1.63236,0.0303389,1.66526,0,0,1.01E+06,1.01E+06,0.104144,0.0357127
758,0.28954,-2.5068,-3.65368,6.58072,1207.12,53.3553,-5.27979,1092.45,403.92,0,0,0.00120473,0.0001817,-0.0555207,1.77218,0.0451401,1.80738,0,0,1.01E+06,1.01E+06,0.101798,0.0364342
759,0.294078,-2.5068,-3.65273,6.58535,1224.37,55.4861,-3.65172,1096.46,408.946,0,0,0.00120473,0.0001817,-0.0531395,1.95548,0.0618093,1.99202,0,0,1.01E+06,1.01E+06,0.0983951,0.0369545
760,0.298616,-2.5068,-3.65177,6.58999,1246.74,59.3368,1.93541,1100.02,414.036,0,0,0.00120473,0.0001817,0.0574167,3.34501,-0.0981482,3.38887,0,0,1.01E+06,1.01E+06,0.096244,0.0376299
761,0.303154,-2.5068,-3.65082,6.59463,1258.36,63.2881,9.04585,1102.62,419.366,0,0,0.00120473,0.0001817,0.167832,4.90045,-0.305572,4.9526,0,0,1.01E+06,1.01E+06,0.0929747,0.0379805
,,,,,,,,Real (Pa),33.43753326,,,,,,,,,,,,,,
,,,,,,,,Meas (Pa),33.9521,,,,,,,,,,,,,,
,,,,,,,,Error (%),1.538889641,,,,,,,,,,,,,,
